&CONTROL
calculation = 'scf'
restart_mode = 'from_scratch'
verbosity = 'high'
wf_collect = .true.
pseudo_dir='/home/arpank/pseudopotentials/'
tprnfor = .true.
/
&SYSTEM
ibrav = 0
ecutwfc = 60
tot_charge = -1
nspin = 2
tot_magnetization = 2.0
nbnd = 480
nat = 215
ntyp = 2
input_dft = 'PBE0'
exx_fraction = 0.18
ecutfock = 120
/
&ELECTRONS
conv_thr = 1D-8
diago_full_acc=.true.
mixing_beta = 0.3
/
&IONS
ion_dynamics='bfgs'
ion_positions='default'
/
K_POINTS gamma
ATOMIC_SPECIES
C  12.01099968  C_ONCV_PBE-1.0.upf
N  14.00699997  N_ONCV_PBE-1.0.upf
CELL_PARAMETERS angstrom
    10.65000000      0.00000000      0.00000000
     0.00000000     10.65000000      0.00000000
     0.00000000      0.00000000     10.65000000
ATOMIC_POSITIONS angstrom
C        9.35034410        9.26947350        9.26784200
C       10.18968400       10.21056200       10.14839400
C        9.28114640        0.38294265        0.44266841
C       10.19437600        1.30318770        1.29450390
C        0.40824246        9.38598570        0.41810061
C        1.33406930       10.20906400        1.30278100
C        0.46937527        0.42212929        9.32198620
C        1.29144080        1.32430460       10.16717600
C        9.27908100        9.28658820        2.21329110
C       10.21569400       10.13275500        3.13537660
C        9.28161360        0.41911790        4.06678750
C       10.21862600        1.37648820        4.82461090
C        0.43657503        9.40372510        4.00865170
C        1.38190080       10.19220100        4.91226070
C        0.42261941        0.42342264        2.27571670
C        1.36622480        1.25793650        3.10516280
C        9.39991090        9.34632610        5.79311070
C       10.27929800       10.22719900        6.62920310
C        9.33793570        0.40080313        7.52783810
C       10.26121500        1.35238590        8.41445210
C        0.43492674        9.39900890        7.58287970
C        1.32782270       10.25897400        8.46684210
C        0.44198457        0.40119390        5.72167950
C        1.26745580        1.35944480        6.61803630
C        9.32733840        2.18769120        9.29694920
C       10.16416600        3.12908930       10.25051900
C        9.33002700        3.98317810        0.48175039
C       10.15137400        4.83021340        1.34342770
C        0.38668100        2.12047120        0.50016562
C        1.29147330        3.10844150        1.30704980
C        0.38963496        3.98515220        9.38311200
C        1.33985490        4.80920500       10.22084000
C        9.26988980        2.20844620        2.25373770
C       10.17574100        3.06708970        3.07574670
C        9.33516930        4.03627320        3.96929010
C       10.19619800        4.89257010        4.80425380
C        0.45357126        2.25638310        3.90107220
C        1.36549570        3.16056660        4.84367010
C        0.41022107        3.87608290        2.22582020
C        1.35210990        4.85120630        3.11173160
C        9.29909570        2.25471550        5.77042400
C       10.20074500        3.09864310        6.67648300
C        9.31253660        4.06218260        7.58420690
C       10.19428400        4.84552150        8.49597140
C        0.45511880        2.20477490        7.51950200
C        1.32759560        3.14230570        8.46839410
C        0.52939299        4.02920990        5.78273800
C        1.37618570        4.86932620        6.72466920
C        9.30687310        5.73651560        9.34991860
C       10.19010200        6.67896200       10.22901900
C        9.37166110        7.51509050        0.41161954
C       10.18529000        8.38530460        1.35678720
C        0.46555837        5.81541900        0.42815528
C        1.32419700        6.64060200        1.33044780
C        0.40005380        7.57009520        9.30793150
C        1.35406330        8.41506540       10.25847000
C        9.33596170        5.79096650        2.25274330
C       10.19197800        6.65865380        3.10099440
C        9.33994830        7.59082240        3.95778680
C       10.20323400        8.42230120        4.87205320
C        0.51421986        5.82808970        3.97124450
C        1.36531980        6.62992710        4.86152370
C        0.44537662        7.56231220        2.13692040
C        1.30118880        8.44409400        3.15589420
C        9.31958330        5.69089510        5.75856070
C       10.17432500        6.61732430        6.67835850
C        9.28367420        7.54726260        7.58271210
C       10.23809700        8.39242120        8.43421710
C        0.48577320        5.78471970        7.63496380
C        1.29086300        6.70052510        8.45815620
C        0.41378866        7.49636200        5.72410800
C        1.24175600        8.40350470        6.62226520
C        2.16740300        9.36918100        9.35746330
C        3.11641530       10.19837200       10.18555100
C        2.18193470        0.41115719        0.45853789
C        3.06009260        1.26739650        1.33722040
C        3.94294070        9.33928170        0.41345929
C        4.89189540       10.24512200        1.30305210
C        3.92557320        0.38133711        9.28738660
C        4.84917550        1.25781940       10.15173600
C        2.22341670        9.27714550        2.20745210
C        3.09634340       10.32182800        3.14859250
C        2.25804220        0.47283589        3.97778260
C        3.10138430        1.37728260        4.86446800
C        3.92569670        9.29827170        4.05664680
C        4.90561620       10.26455800        4.87660840
C        3.97499730        0.41452371        2.21542860
C        4.91105920        1.33417820        3.13665540
C        2.23006990        9.34689300        5.79236700
C        3.22053020       10.24661200        6.68756330
C        2.17756800        0.42770349        7.57934070
C        3.11062740        1.38371060        8.47496030
C        4.08814350        9.31612290        7.48539390
C        4.88593510       10.21537300        8.35015110
C        4.01266040        0.44771854        5.77150200
C        4.91495020        1.38522490        6.68582150
C        2.20024950        2.21617980        9.40868430
C        3.02934560        3.03916140       10.26110200
C        2.20003880        3.91447800        0.40289642
C        3.06481140        4.80285280        1.30748710
C        4.00113880        2.17435940        0.47708404
C        4.85569980        3.16330250        1.35288860
C        3.95086060        3.98481350        9.35368880
C        4.91055410        4.90223900       10.13985500
C        2.27592920        2.14320670        2.23015550
C        3.12510040        3.08864670        3.14190670
C        2.26389150        4.03499980        3.93448410
C        3.16085260        4.89981690        4.92942340
C        4.04190440        2.22937820        4.00834550
C        4.89180690        3.15626260        4.81038050
C        3.94551840        3.97299440        2.17211060
C        4.89526950        4.86914540        3.08203000
C        2.18605100        2.17555180        5.74661390
C        3.08320630        3.10352190        6.62546110
C        2.24497820        4.02007440        7.64233280
C        3.11825810        4.92611230        8.40436360
C        4.00477450        2.20752480        7.60409910
C        4.80779320        3.13302690        8.42975820
C        4.05913040        3.98676560        5.76766110
C        4.88500760        4.92644060        6.65163570
C        2.16338930        5.79692680        9.23509300
C        3.07603940        6.66533870       10.21621000
C        2.19666370        7.47118460        0.50975328
C        3.14530930        8.39384800        1.26008380
C        3.96026130        5.74985030        0.43759889
C        4.85883670        6.55639530        1.41622490
C        4.03569090        7.53987170        9.25389310
C        4.95434260        8.54346760       10.12526100
C        2.30334960        5.70243230        2.28982020
C        3.08859660        6.65000110        3.11911550
C        2.17802400        7.54477330        4.00450550
C        3.05011020        8.44579300        4.90840580
C        4.00600690        5.76697630        3.99794490
C        4.88588720        6.74347000        4.87606520
C        3.96029570        7.49573520        2.24906490
C        4.81057810        8.41520030        3.12183020
C        2.24227240        5.72831980        5.83688920
C        3.11813390        6.70478550        6.63038520
C        2.20017480        7.55502640        7.52280530
C        3.15162340        8.39600790        8.39349870
C        4.01877780        5.82359120        7.54944280
C        4.94763100        6.66213430        8.44334670
C        4.04323880        7.59758460        5.69423050
C        4.89164440        8.49991650        6.65016530
C        5.77901510        9.27681210        9.24181250
C        6.71374990       10.23573800       10.19124500
C        5.75509870        0.42945172        0.41152162
C        6.64343040        1.28595860        1.26180710
C        7.57320140        9.29593070        0.47091007
C        8.47275080       10.19020900        1.37907520
C        7.55885580        0.39277057        9.31329010
C        8.41242140        1.27470000       10.25225100
C        5.78052110        9.35489280        2.19990300
C        6.66889400       10.18265100        3.10387280
C        5.83657150        0.44464686        3.96479510
C        6.67846330        1.33750450        4.88909420
C        7.53675750        9.29001660        4.00196970
C        8.41385000       10.23646800        4.89709650
C        7.52712530        0.47885501        2.21805370
C        8.36788610        1.29793700        3.17007150
C        5.79546260        9.28929880        5.77791820
C        6.72038500       10.17682500        6.53361860
C        5.83926370        0.51344581        7.54932980
C        6.66141130        1.34294970        8.42187460
C        7.59516970        9.34880230        7.53279150
C        8.47734800       10.19746900        8.37964730
C        7.53179880        0.43518046        5.74399120
C        8.40284190        1.30647080        6.62528480
C        5.83397300        2.22034280        9.29962370
C        6.57791940        3.14637680       10.13535600
C        5.80473840        3.97780570        0.42759438
C        6.60992090        4.81946220        1.39139700
C        7.49564760        2.20454890        0.43721200
C        8.40098380        3.08379950        1.29498990
C        7.53245520        4.03996160        9.33560410
C        8.44890670        4.81302260       10.20590100
C        5.77188810        2.20540230        2.18229860
C        6.64796180        3.10446730        3.07139910
C        7.54205540        2.28298100        3.92683920
C        8.42598840        3.17281840        4.83901620
C        7.54398030        3.96986220        2.25416110
C        8.41476190        4.93734090        3.08976490
C        5.78002370        2.21921060        5.74626260
C        6.63657740        3.09281800        6.61057310
C        5.75900550        3.97329570        7.56740940
C        6.63817920        4.91915970        8.43768750
C        7.53834570        2.17164370        7.55269900
C        8.40997830        3.10741160        8.49409450
C        7.58160620        3.92968070        5.82040980
C        8.40190290        4.85102010        6.68013440
C        5.71681030        5.76152550        9.33302670
C        6.62416030        6.67279640       10.30191500
C        5.73438290        7.60080270        0.50809129
C        6.64049440        8.47069650        1.35252890
C        7.49818250        5.76354080        0.54138923
C        8.48469470        6.59524110        1.30558630
C        7.55912640        7.54801120        9.37593210
C        8.50899040        8.44099730       10.22937200
C        5.68958470        5.73989940        2.25395910
C        6.58940370        6.66191130        3.03208190
C        5.80940080        7.57962710        4.04921640
C        6.69777950        8.51886450        4.85511060
C        7.65520630        5.81406160        3.90167970
C        8.34524650        6.63713250        4.91449690
C        7.54679310        7.53153760        2.15455990
C        8.44365370        8.48336520        3.15758190
C        5.76574790        5.91911940        5.77673030
C        6.69213760        6.63544720        6.61526780
C        5.76401330        7.64181340        7.54718720
C        6.66847060        8.40872980        8.48101870
C        7.51218590        5.81265160        7.52510450
C        8.45107170        6.61622540        8.48253030
C        7.55552130        7.63965670        5.82626380
C        8.45969140        8.47901540        6.69416130
N        5.68122930        3.89877860        3.82762130
