&CONTROL
calculation = 'scf'
restart_mode = 'from_scratch'
verbosity = 'high'
wf_collect = .true.
pseudo_dir='/home/arpank/pseudopotentials/'
tprnfor = .true.
/
&SYSTEM
ibrav = 0
ecutwfc = 60
tot_charge = -1
nspin = 2
tot_magnetization = 2.0
nbnd = 480
nat = 215
ntyp = 2
input_dft = 'PBE0'
exx_fraction = 0.18
ecutfock = 120
/
&ELECTRONS
conv_thr = 1D-8
diago_full_acc=.true.
mixing_beta = 0.3
/
&IONS
ion_dynamics='bfgs'
ion_positions='default'
/
K_POINTS gamma
ATOMIC_SPECIES
C  12.01099968  C_ONCV_PBE-1.0.upf
N  14.00699997  N_ONCV_PBE-1.0.upf
CELL_PARAMETERS angstrom
    10.65000000      0.00000000      0.00000000
     0.00000000     10.65000000      0.00000000
     0.00000000      0.00000000     10.65000000
ATOMIC_POSITIONS angstrom
C        9.33443350        9.37469590        9.28980620
C       10.22948100       10.24963900       10.19527000
C        9.30544350        0.49126479        0.44318681
C       10.20362700        1.31187750        1.31843180
C        0.48325033        9.37677970        0.43408081
C        1.28450530       10.22425200        1.28040800
C        0.40771573        0.53503410        9.29063080
C        1.33687620        1.32968730       10.21916500
C        9.35282400        9.29981210        2.17391660
C       10.25650900       10.20136100        3.06254780
C        9.38069740        0.35192628        3.99387460
C       10.23041300        1.32256580        4.88891420
C        0.46605840        9.25441830        3.96605940
C        1.31327170       10.15352000        4.85125100
C        0.47007918        0.41121302        2.23417750
C        1.39994410        1.30900830        3.11588240
C        9.29480100        9.30290370        5.82487310
C       10.25681600       10.26892200        6.69364770
C        9.30543150        0.51923370        7.55775720
C       10.21600600        1.36127230        8.52876620
C        0.41525025        9.31808490        7.55210810
C        1.32698820       10.27176000        8.51398620
C        0.47716223        0.40445456        5.77092300
C        1.39730480        1.32544320        6.65640780
C        9.19413930        2.23382570        9.31673380
C       10.13181500        3.15322450       10.15103100
C        9.32028090        3.97373210        0.51111162
C       10.22725300        4.90222470        1.33238890
C        0.37798949        2.16147420        0.40696179
C        1.30569630        3.13638910        1.33130730
C        0.40961641        4.05813710        9.30982910
C        1.36826520        4.91968920       10.12479600
C        9.34333340        2.20274020        2.24862230
C       10.22580000        3.07088560        3.07843870
C        9.34750380        3.95058980        3.97405360
C       10.19554600        4.87236390        4.90451930
C        0.48017340        2.22822920        4.00692650
C        1.31581360        3.08175500        4.93268990
C        0.47500829        3.91968350        2.29750440
C        1.37846360        4.87757050        3.08885430
C        9.38651910        2.27196550        5.70105180
C       10.17406300        3.12983120        6.74294160
C        9.29789570        4.02048090        7.49084210
C       10.13686700        4.90560410        8.40476360
C        0.38156797        2.22048290        7.61031750
C        1.36064540        3.15781840        8.41288180
C        0.46594208        4.04559400        5.82624580
C        1.32132540        4.87196430        6.67964680
C        9.24704470        5.81685930        9.40467930
C       10.19504300        6.71418090       10.29598800
C        9.35617900        7.58427100        0.42337255
C       10.26811100        8.42396000        1.35673920
C        0.42418915        5.74684950        0.45805310
C        1.29960740        6.63343690        1.40704240
C        0.45497517        7.55909310        9.30840310
C        1.32796230        8.42391480       10.21265600
C        9.31971910        5.81139800        2.18122760
C       10.16826000        6.65023960        3.08846130
C        9.36966890        7.53512580        3.99311780
C       10.17129500        8.43745050        4.95645180
C        0.47062478        5.77974110        3.96277160
C        1.35627890        6.66846940        4.91875790
C        0.46134767        7.46083220        2.24647590
C        1.36504780        8.41586220        3.12281620
C        9.28573870        5.82586320        5.79248800
C       10.26956700        6.71210950        6.65337030
C        9.32451580        7.46400090        7.53731660
C       10.19759400        8.44958970        8.38972560
C        0.42840068        5.68682100        7.55874900
C        1.42794140        6.64640790        8.46331260
C        0.45108989        7.56058090        5.78698160
C        1.37279830        8.49318700        6.61637810
C        2.21366300        9.28094740        9.35299570
C        3.11199260       10.24666300       10.10569100
C        2.30948250        0.40818009        0.47276542
C        3.05533170        1.29607840        1.35758510
C        4.01168990        9.32196310        0.47836716
C        4.87609790       10.20641800        1.35981240
C        4.00465840        0.50304108        9.25453670
C        4.81468000        1.31916800       10.15819700
C        2.20628960        9.28388950        2.24560930
C        3.07774590       10.17237800        3.16337400
C        2.23686700        0.47116094        4.00385860
C        3.14875060        1.31239070        4.83360540
C        3.96810710        9.26649830        3.97569950
C        4.86218500       10.23089100        4.83729050
C        4.01326020        0.47162703        2.28502500
C        4.88326300        1.31871320        3.12408570
C        2.24141730        9.29681650        5.75057830
C        3.03835360       10.17152600        6.49689940
C        2.20684080        0.52344390        7.45486650
C        3.08524530        1.37845050        8.38327640
C        3.95406590        9.36962990        7.56389390
C        4.92529810       10.22449000        8.41979200
C        4.00428510        0.44324380        5.75634250
C        4.88157620        1.28334770        6.67509070
C        2.17810950        2.27123580        9.26812880
C        3.08816420        3.16746270       10.17060400
C        2.19111600        3.94051840        0.34579603
C        3.05734920        4.82114640        1.33250860
C        3.95475140        2.30046350        0.36592636
C        4.93487410        3.01443440        1.28755060
C        4.01984810        3.97692310        9.30211730
C        4.86858080        4.87950920       10.23590600
C        2.16809790        2.19986810        2.23120120
C        3.13303360        3.08611740        3.13145190
C        2.17959560        3.99116680        4.01023310
C        3.12362410        4.84232800        4.86744710
C        4.04203560        2.18937060        4.08163560
C        4.87254740        3.03262920        4.82434030
C        3.94431980        3.92740390        2.17266460
C        4.90318200        4.76729980        3.16278700
C        2.20402030        2.20889820        5.75658230
C        3.08047150        3.06394130        6.57769470
C        2.26016400        3.99687190        7.51230530
C        3.10478790        4.84916660        8.41189650
C        3.98470630        2.22762100        7.43321910
C        4.89505480        3.06489590        8.40474160
C        3.96200090        3.99857360        5.69866270
C        4.91200000        4.91264380        6.64818390
C        2.22492920        5.82048790        9.29178500
C        3.08803300        6.62076880       10.22140000
C        2.23829740        7.46909530        0.45597315
C        3.14432940        8.37761740        1.32039190
C        4.00908520        5.78335820        0.48433323
C        4.91237790        6.62620090        1.34987290
C        3.97623640        7.47985760        9.30144810
C        4.90708580        8.47553670       10.26513200
C        2.17716820        5.79249910        2.21305070
C        3.13073680        6.63570090        3.10902000
C        2.24517580        7.50884920        3.99368560
C        3.10786690        8.41397160        4.92952850
C        3.97125300        5.70252580        3.97505950
C        4.89833570        6.63060260        4.93117770
C        3.95786070        7.42246130        2.26946780
C        4.88602180        8.40101640        3.12829710
C        2.19938240        5.78778620        5.78075110
C        3.14341570        6.66396510        6.67919940
C        2.29606690        7.54932600        7.47459160
C        3.10287090        8.49562270        8.42311020
C        3.97174000        5.81662650        7.56326920
C        4.81486430        6.65391870        8.44049350
C        3.95724530        7.55228270        5.72416960
C        4.84082920        8.45672740        6.65773660
C        5.79977510        9.38139440        9.40991110
C        6.69509450       10.22340300       10.21359200
C        5.78944780        0.39790655        0.48900157
C        6.62959010        1.31986270        1.44156810
C        7.56637860        9.34462780        0.44069328
C        8.49746190       10.20580800        1.32834350
C        7.56116910        0.44286751        9.38390360
C        8.37326630        1.35481860       10.26334400
C        5.74152660        9.32255080        2.20478090
C        6.69323580       10.24196100        3.12393530
C        5.85558990        0.49271285        4.02916160
C        6.60377600        1.28137720        4.90952410
C        7.56240010        9.26262560        4.00905530
C        8.46944130       10.24063800        4.86528300
C        7.57932540        0.43109315        2.26989300
C        8.38001880        1.32634060        3.16809630
C        5.81177290        9.31684960        5.81247610
C        6.68508570       10.21569000        6.60929480
C        5.79486370        0.47106768        7.55179250
C        6.71592480        1.30184240        8.38725460
C        7.55894180        9.34441510        7.55547390
C        8.41901590       10.21156300        8.46704150
C        7.54957800        0.47196066        5.82178460
C        8.52833210        1.40681700        6.61936880
C        5.79989640        2.23246570        9.30689590
C        6.63968390        3.17972690       10.26193900
C        5.80124710        4.00623310        0.45792294
C        6.67162220        4.87229520        1.28111990
C        7.44238690        2.17962860        0.40522068
C        8.37332620        3.14159270        1.35437460
C        7.54392680        3.98079540        9.30291460
C        8.35938690        4.85135160       10.24720000
C        5.73582230        2.18787840        2.27677180
C        6.59139780        3.11914490        3.14825430
C        7.50849450        2.24500820        4.01241060
C        8.43128490        3.14241210        4.78982470
C        7.57603550        4.02459580        2.26952860
C        8.46411680        4.90421490        3.09846260
C        5.76045570        2.21454960        5.71900740
C        6.73324830        3.16198610        6.61800660
C        5.72229750        4.00129770        7.51373150
C        6.69403420        4.84121640        8.42190750
C        7.49415870        2.29935640        7.53844680
C        8.35671210        3.09358370        8.33152000
C        7.62561270        3.96853810        5.85564630
C        8.44673350        4.86747570        6.61283480
C        5.67945210        5.73181030        9.25973500
C        6.65443180        6.70580470       10.16241100
C        5.75990630        7.50820020        0.46422508
C        6.62695400        8.49892160        1.37257940
C        7.56316670        5.75584210        0.35692585
C        8.43465110        6.69505140        1.28502990
C        7.50617560        7.51639090        9.22300930
C        8.39984160        8.40231950       10.19742400
C        5.76831950        5.71815560        2.25527470
C        6.64105000        6.57737780        3.13408010
C        5.74859000        7.48487280        4.05597300
C        6.61684000        8.37868910        4.87571690
C        7.62632250        5.86145940        3.94223010
C        8.48401400        6.72418750        4.85835540
C        7.53558310        7.57583570        2.26284400
C        8.42530340        8.36805060        3.06947790
C        5.80402310        5.76885160        5.82098670
C        6.57608790        6.67010570        6.58381850
C        5.68064000        7.62737420        7.52854920
C        6.69138030        8.43596840        8.42466830
C        7.49242560        5.77668070        7.54047400
C        8.41082050        6.67800670        8.41819510
C        7.51874960        7.52431890        5.75944530
C        8.40384440        8.41447170        6.71765980
N        5.68639330        3.89213280        3.94266000
