&CONTROL
calculation = 'scf'
restart_mode = 'from_scratch'
verbosity = 'high'
wf_collect = .true.
pseudo_dir='/home/arpank/pseudopotentials/'
tprnfor = .true.
/
&SYSTEM
ibrav = 0
ecutwfc = 60
tot_charge = -1
nspin = 2
tot_magnetization = 2.0
nbnd = 480
nat = 215
ntyp = 2
input_dft = 'PBE0'
exx_fraction = 0.18
ecutfock = 120
/
&ELECTRONS
conv_thr = 1D-8
diago_full_acc=.true.
mixing_beta = 0.3
/
&IONS
ion_dynamics='bfgs'
ion_positions='default'
/
K_POINTS gamma
ATOMIC_SPECIES
C  12.01099968  C_ONCV_PBE-1.0.upf
N  14.00699997  N_ONCV_PBE-1.0.upf
CELL_PARAMETERS angstrom
    10.65000000      0.00000000      0.00000000
     0.00000000     10.65000000      0.00000000
     0.00000000      0.00000000     10.65000000
ATOMIC_POSITIONS angstrom
C        9.36647640        9.34783050        9.31938540
C       10.20382600       10.19770600       10.25562400
C        9.33842500        0.38973635        0.49379366
C       10.25848100        1.35565150        1.32605350
C        0.46326084        9.33898260        0.46351471
C        1.35147570       10.21163900        1.38644380
C        0.42861808        0.43544971        9.26979830
C        1.35904760        1.26794550       10.19607300
C        9.32441170        9.29180830        2.27306560
C       10.16891200       10.16032700        3.09814920
C        9.26642700        0.51328801        3.95586980
C       10.18556500        1.29614130        4.91844260
C        0.44359683        9.31344300        4.03787890
C        1.33990990       10.20903700        4.85603060
C        0.43885750        0.41495742        2.20499060
C        1.32532210        1.33659030        3.08948100
C        9.36966580        9.29542570        5.72380290
C       10.18099600       10.24687300        6.59818820
C        9.34059790        0.46905960        7.50601850
C       10.24525300        1.31213640        8.36385010
C        0.42459393        9.29893940        7.56135630
C        1.33940320       10.20229900        8.46998780
C        0.44319621        0.45960798        5.70477730
C        1.37218450        1.34702720        6.69481860
C        9.38417420        2.26185010        9.33282800
C       10.21316600        3.15093180       10.24042800
C        9.27033050        3.91770020        0.51498131
C       10.19431000        4.83947560        1.34453250
C        0.47567179        2.22289870        0.43301194
C        1.30744190        3.12684760        1.28634020
C        0.41884016        3.99823370        9.28275620
C        1.25992490        4.88394800       10.16673900
C        9.33724910        2.16186740        2.20916650
C       10.29088300        3.10123480        3.09439310
C        9.37077530        3.99515430        3.93411650
C       10.19037600        4.87333100        4.86760870
C        0.41352127        2.20371060        4.02058620
C        1.35596480        3.05232330        4.83304590
C        0.50802466        3.98397030        2.28481180
C        1.34853700        4.81451380        3.11985630
C        9.30101880        2.16750830        5.74441430
C       10.21070500        3.01562340        6.58212230
C        9.32335310        4.00965290        7.49216820
C       10.21830200        4.86229790        8.41198560
C        0.44319379        2.22977980        7.57229200
C        1.23105800        3.15406420        8.41802840
C        0.45963264        3.98044650        5.73507700
C        1.33895450        4.92939470        6.57908620
C        9.31080480        5.76423520        9.34269800
C       10.27371100        6.67182120       10.19974600
C        9.28462310        7.59910860        0.43288775
C       10.28185000        8.42775950        1.33759580
C        0.44590216        5.70239810        0.37871160
C        1.37461530        6.60112800        1.29032260
C        0.51713431        7.53686850        9.39248310
C        1.40967560        8.45963350       10.25236900
C        9.31049040        5.73008390        2.25303260
C       10.27552700        6.67298530        3.15719710
C        9.27082260        7.51919280        4.05354290
C       10.24262100        8.43057080        4.94573390
C        0.42139174        5.73279140        4.01224050
C        1.34374090        6.72199870        4.88878010
C        0.46986968        7.60214750        2.23575700
C        1.34849980        8.46296920        3.08583560
C        9.29692490        5.70108980        5.69391540
C       10.21497100        6.65094230        6.64914530
C        9.29837380        7.53175390        7.54065060
C       10.22655400        8.47949430        8.47503710
C        0.43180416        5.82685640        7.56668230
C        1.34971140        6.69881720        8.42934320
C        0.44780478        7.46444120        5.87376070
C        1.37120040        8.42511480        6.64794050
C        2.22711300        9.28698560        9.28622320
C        3.05954650       10.13803000       10.21581300
C        2.23433930        0.44061124        0.46016183
C        3.02834630        1.39459390        1.31725030
C        4.07679420        9.29183140        0.39001029
C        4.91201480       10.14335700        1.42978410
C        3.91081760        0.42000524        9.35465370
C        4.91323130        1.28044530       10.22486700
C        2.20831390        9.21240520        2.19373740
C        3.00774250       10.16831400        3.11516170
C        2.18771430        0.47628542        4.04357430
C        3.08821670        1.37674800        4.99688090
C        3.91000450        9.28750100        3.94866540
C        4.79660940       10.22513900        4.86992360
C        3.92244720        0.46483445        2.18320880
C        4.85739300        1.36895530        3.12101150
C        2.18351260        9.33839040        5.75772720
C        3.09602840       10.20148400        6.66745760
C        2.26029840        0.38413693        7.49112000
C        3.04370250        1.34165030        8.40569840
C        3.98731990        9.30689860        7.57026900
C        4.85357380       10.20982800        8.52871620
C        3.92966230        0.43570642        5.76499200
C        4.78933320        1.30139530        6.70137270
C        2.17571840        2.25607690        9.30859350
C        3.11502150        3.11919540       10.16057200
C        2.13735440        4.02331110        0.46442896
C        3.11766240        4.93195240        1.26812640
C        3.97737480        2.20936020        0.45915751
C        4.87947820        3.07617740        1.25249110
C        4.01766000        4.02320530        9.27451780
C        4.82889440        4.94708750       10.20733300
C        2.20838270        2.28138820        2.24128800
C        3.06265280        3.13053490        3.08567220
C        2.21446720        3.97969880        4.00191390
C        3.07621100        4.88326550        4.85024600
C        3.91774390        2.15627200        3.98494250
C        4.81649020        3.06292210        4.89267430
C        3.90616400        4.04093290        2.26026720
C        4.85485650        4.86425240        3.05762270
C        2.25155640        2.25479470        5.79754460
C        3.15973220        3.14469210        6.71348080
C        2.17514160        3.97354100        7.51268730
C        3.13454920        4.89206810        8.43596540
C        3.97509940        2.18922500        7.48787160
C        4.81206280        3.07328280        8.31534380
C        3.96684190        4.02240950        5.79159970
C        4.91825000        4.92695720        6.70882820
C        2.23048020        5.74251130        9.30440450
C        3.14433660        6.61315350       10.20014800
C        2.27978190        7.46493020        0.51136688
C        3.19900200        8.35118810        1.35386180
C        4.01996840        5.75645010        0.40631633
C        4.92035800        6.61999080        1.29040370
C        4.01037950        7.50471430        9.27705390
C        4.90592590        8.37589190       10.18720000
C        2.27794440        5.73606890        2.19078090
C        3.17187560        6.74969340        3.11413370
C        2.28566700        7.61081400        4.00058260
C        3.09587970        8.42652390        4.87992710
C        4.04334960        5.79077450        4.03894930
C        4.92895230        6.57847480        4.93917730
C        4.06377530        7.55495680        2.24397190
C        4.81905000        8.43609660        3.09115260
C        2.19679830        5.77734320        5.73452370
C        3.14655310        6.78407360        6.65840110
C        2.23931330        7.57635520        7.56325620
C        3.15230220        8.41773300        8.49878380
C        3.97436180        5.81685440        7.52650250
C        4.85422260        6.69606680        8.43522910
C        4.00454370        7.54562990        5.73286840
C        4.86387600        8.47990160        6.62659590
C        5.74420630        9.38591040        9.30662640
C        6.70115020       10.17896200       10.16688800
C        5.76801890        0.41679886        0.39729580
C        6.70492270        1.34900110        1.29532790
C        7.58098790        9.38600400        0.38443508
C        8.39367140       10.16704300        1.29371160
C        7.62323830        0.48110725        9.32915710
C        8.48304210        1.40268910       10.25573700
C        5.77504620        9.30323910        2.26478510
C        6.63049500       10.18952600        3.07670890
C        5.79063650        0.46759960        3.99191320
C        6.62680720        1.32403230        4.81529400
C        7.49565200        9.35832880        4.01252010
C        8.37143090       10.22092900        4.87114210
C        7.55717440        0.43335418        2.21478900
C        8.37070130        1.30984450        3.03742860
C        5.75423690        9.32255360        5.81434270
C        6.61078820       10.23863300        6.64997180
C        5.77255880        0.46308925        7.49165330
C        6.62394840        1.38330550        8.43914480
C        7.56181090        9.32206580        7.56319960
C        8.39447530       10.23693500        8.38341540
C        7.49408210        0.41222816        5.78500420
C        8.44569360        1.36706140        6.61173210
C        5.77691920        2.16923640        9.29650140
C        6.62451760        3.14678790       10.22311400
C        5.76059110        3.92789360        0.45919665
C        6.66167560        4.86339030        1.38218600
C        7.46331120        2.20462750        0.44493871
C        8.38110990        3.03342710        1.30211030
C        7.62061210        4.02979000        9.31561040
C        8.43796840        4.86657990       10.25231000
C        5.75649150        2.14849550        2.16777980
C        6.62158900        3.10839290        3.04395680
C        7.51192940        2.27188470        4.01269580
C        8.40860200        3.03147120        4.86339670
C        7.57876710        4.01297660        2.22083950
C        8.37084250        4.86846820        3.13652370
C        5.71353030        2.20947390        5.74248400
C        6.65399750        3.15472670        6.66357010
C        5.76826320        4.07947370        7.58713340
C        6.79344850        4.90908450        8.44665750
C        7.52574990        2.20006220        7.56877270
C        8.46929450        3.07303400        8.41397550
C        7.49496960        3.90861490        5.80710850
C        8.41357670        4.83590520        6.58836130
C        5.85305630        5.80906130        9.36130610
C        6.59887120        6.66136210       10.25009000
C        5.85137590        7.57088220        0.44913114
C        6.64646410        8.45429030        1.38771100
C        7.55445920        5.79648600        0.45767882
C        8.40398770        6.65151100        1.30259090
C        7.59522000        7.58396670        9.28675160
C        8.45092920        8.49232730       10.21390600
C        5.85527920        5.72741200        2.28164180
C        6.64714870        6.70417400        3.11575340
C        5.81033750        7.60175270        4.00941790
C        6.66375590        8.45648920        4.89082010
C        7.59995210        5.87029180        3.99697310
C        8.44076840        6.61883080        4.91099980
C        7.58251900        7.56609210        2.19657010
C        8.44662630        8.34296660        3.15099720
C        5.71332420        5.81480530        5.85421630
C        6.64356100        6.68865060        6.65700560
C        5.79619400        7.60223700        7.57519070
C        6.64063190        8.46618760        8.48671330
C        7.55129530        5.78134510        7.52309630
C        8.45684990        6.67714920        8.40206960
C        7.50116410        7.48526560        5.82235710
C        8.48423460        8.43577950        6.70044740
N        5.60960990        3.86436850        3.86903430
