&CONTROL
calculation = 'scf'
restart_mode = 'from_scratch'
verbosity = 'high'
wf_collect = .true.
pseudo_dir='/home/arpank/pseudopotentials/'
tprnfor = .true.
/
&SYSTEM
ibrav = 0
ecutwfc = 60
tot_charge = -1
nspin = 2
tot_magnetization = 2.0
nbnd = 480
nat = 215
ntyp = 2
input_dft = 'PBE0'
exx_fraction = 0.18
ecutfock = 120
/
&ELECTRONS
conv_thr = 1D-8
diago_full_acc=.true.
mixing_beta = 0.3
/
&IONS
ion_dynamics='bfgs'
ion_positions='default'
/
K_POINTS gamma
ATOMIC_SPECIES
C  12.01099968  C_ONCV_PBE-1.0.upf
N  14.00699997  N_ONCV_PBE-1.0.upf
CELL_PARAMETERS angstrom
    10.65000000      0.00000000      0.00000000
     0.00000000     10.65000000      0.00000000
     0.00000000      0.00000000     10.65000000
ATOMIC_POSITIONS angstrom
C        9.34453710        9.29313010        9.34535210
C       10.20428800       10.14627700       10.17666300
C        9.29996870        0.42752621        0.44795456
C       10.23266900        1.27473980        1.37703680
C        0.43238274        9.29527010        0.47744344
C        1.35550710       10.24660400        1.39346570
C        0.41500895        0.43337764        9.32340750
C        1.24108020        1.34784230       10.22407200
C        9.25728350        9.24169950        2.23274810
C       10.19635900       10.14355400        3.09968030
C        9.31765530        0.44662936        4.03368360
C       10.20353600        1.29544220        4.87845780
C        0.51745187        9.34848090        3.91338970
C        1.35607690       10.24628300        4.82334140
C        0.42943002        0.43857991        2.22474020
C        1.30171260        1.28553490        3.21893890
C        9.41200980        9.35250270        5.73562170
C       10.22221600       10.21282500        6.63097790
C        9.32091200        0.38998115        7.49937520
C       10.19621000        1.32185940        8.42150960
C        0.47307778        9.30522540        7.50541830
C        1.27194630       10.18972300        8.46023500
C        0.43381676        0.40478480        5.73012160
C        1.29454880        1.41361750        6.61616280
C        9.33969650        2.25208530        9.29134130
C       10.20477200        3.05804520       10.15754300
C        9.26914310        4.00946820        0.43560722
C       10.24294400        4.84797090        1.33538840
C        0.48059340        2.18489400        0.46981731
C        1.39301910        3.06779480        1.30775140
C        0.49444203        4.00081850        9.24926110
C        1.27854670        4.88799570       10.13186100
C        9.29219960        2.21619230        2.20565080
C       10.12826200        3.05376020        3.08903070
C        9.33711520        3.91952890        4.02440760
C       10.15668500        4.82784890        4.92832040
C        0.41429594        2.17803090        3.94400500
C        1.27311670        3.09387350        4.86207280
C        0.48142290        3.98999990        2.24852320
C        1.33000800        4.89911650        3.10173590
C        9.37226620        2.25074330        5.87754720
C       10.18195500        3.19182160        6.69870810
C        9.31806260        4.02749740        7.52833530
C       10.21392000        4.87750230        8.40969790
C        0.40396756        2.19542470        7.55927570
C        1.27921900        3.10465020        8.45715250
C        0.41970723        4.00467960        5.79181950
C        1.29300100        4.89713630        6.67441380
C        9.30027800        5.70854320        9.22918660
C       10.25726400        6.64258600       10.11716300
C        9.33750420        7.52193150        0.46103823
C       10.24292700        8.39662030        1.29794160
C        0.48597163        5.80398850        0.34788738
C        1.29991260        6.65038460        1.21611450
C        0.48099886        7.51290920        9.28534770
C        1.35210140        8.42111180       10.13563900
C        9.32353750        5.74318140        2.24978380
C       10.16580800        6.65859140        3.16209450
C        9.26823000        7.53906210        3.98292140
C       10.29772200        8.46806890        4.79160760
C        0.44483616        5.74697010        3.94183300
C        1.32755140        6.66308910        4.89800030
C        0.43519184        7.56440090        2.20645450
C        1.42413450        8.36319440        3.13046110
C        9.29992300        5.85415190        5.79561770
C       10.26968200        6.66391020        6.65200060
C        9.37295980        7.55133680        7.59983660
C       10.15433000        8.46150680        8.39245130
C        0.44960274        5.85080160        7.52925130
C        1.33314130        6.65960170        8.37497720
C        0.47759720        7.60541570        5.79621730
C        1.30870240        8.37345350        6.63528910
C        2.20247210        9.35049990        9.27462960
C        3.10380090       10.19255100       10.17581600
C        2.25218260        0.41160067        0.41548222
C        3.04457500        1.37864730        1.34467700
C        3.92869730        9.37262610        0.45967423
C        4.80092590       10.22525400        1.25256400
C        4.04839720        0.46551540        9.32158740
C        4.91678950        1.33992610       10.22809100
C        2.21415920        9.39876590        2.19951080
C        3.09420080       10.18897700        3.09811560
C        2.24401950        0.32213635        3.98053110
C        3.15294630        1.39764250        4.85848150
C        4.02685520        9.35492170        3.98835880
C        4.93168600       10.18348900        4.85046770
C        3.98322120        0.52496735        2.22289230
C        4.87444470        1.38044770        3.07244410
C        2.19873830        9.36001600        5.77153080
C        3.10143050       10.31930900        6.70677270
C        2.15181620        0.43897835        7.58883800
C        3.10177670        1.31643590        8.48025450
C        4.04223460        9.27553730        7.52390550
C        4.86068670       10.31042200        8.36591260
C        4.00089100        0.52402010        5.75687570
C        4.87981960        1.34766910        6.64696520
C        2.22006210        2.20810710        9.30908370
C        3.12736930        3.09878770       10.20319000
C        2.18767790        4.00478410        0.39205853
C        3.08254880        4.85959990        1.31274950
C        4.01622070        2.17292310        0.46911017
C        4.89569970        3.11242330        1.32443730
C        3.96345150        3.99394290        9.29192660
C        4.88186190        4.82987330       10.21056900
C        2.20806090        2.16172800        2.16753980
C        3.13332220        3.14874100        3.07351550
C        2.17242040        4.04486560        3.89296730
C        3.15888840        4.84621260        4.88202890
C        4.00867570        2.23090080        3.96833530
C        4.93336270        3.12743380        4.89610680
C        3.95486050        3.96192920        2.27034360
C        4.79899360        4.84074030        3.08058090
C        2.28125430        2.28486330        5.72542120
C        3.14162510        3.16432470        6.69779650
C        2.16683910        3.99514130        7.61286940
C        3.04774680        4.79223770        8.39375160
C        3.99147020        2.24842240        7.51698930
C        4.88694340        3.16418080        8.41245920
C        3.99291320        4.04127770        5.85020600
C        4.92705050        4.91504050        6.64404710
C        2.25277460        5.82313250        9.35085320
C        3.15519050        6.68504550       10.19462900
C        2.17510910        7.55617240        0.39417686
C        3.03756790        8.41118210        1.28692910
C        3.99053990        5.72847320        0.45866000
C        4.87690400        6.63653920        1.37619540
C        4.02165580        7.58232050        9.31882120
C        4.85787830        8.43816590       10.26790800
C        2.19971780        5.71964650        2.13843030
C        3.11323470        6.60545360        3.06776140
C        2.27140230        7.50148460        3.97006080
C        3.10757310        8.41331160        4.85862940
C        4.10405140        5.77106360        4.01705550
C        4.91423630        6.55405690        4.86472060
C        3.91972160        7.51390570        2.19492410
C        4.91714750        8.39042900        3.13137670
C        2.23892960        5.73926290        5.73059090
C        3.06387630        6.67745620        6.70134980
C        2.18808010        7.57934300        7.56814080
C        3.13378310        8.47558210        8.46362020
C        4.00877610        5.76063100        7.57777700
C        4.92847340        6.60682950        8.49799020
C        3.92128760        7.53560080        5.80238050
C        4.90450730        8.41322500        6.68660560
C        5.86874950        9.38703190        9.32973140
C        6.63695570       10.24970000       10.23457400
C        5.78008450        0.50240706        0.42056664
C        6.63207240        1.33042460        1.31522550
C        7.55701260        9.28266330        0.44617038
C        8.35233320       10.16631500        1.38752140
C        7.61846930        0.45374656        9.29825400
C        8.48114300        1.31593800       10.22257300
C        5.71359420        9.27233840        2.27133290
C        6.64213560       10.16635300        3.15454100
C        5.74430360        0.52277794        3.96443860
C        6.67083090        1.36899510        4.93853690
C        7.54865570        9.29389800        4.03249800
C        8.43266250       10.15941600        4.85159330
C        7.53206540        0.44829583        2.34089620
C        8.36197450        1.39252890        3.09657230
C        5.78014360        9.34503040        5.80496230
C        6.64734820       10.25221200        6.68241530
C        5.76352300        0.46997555        7.49654050
C        6.72114330        1.33066130        8.43782540
C        7.57949690        9.27621040        7.57206220
C        8.38699190       10.23714400        8.45009240
C        7.58478280        0.39255031        5.82397490
C        8.51627370        1.38189170        6.59399770
C        5.74462620        2.18595560        9.30722020
C        6.62683230        3.08671450       10.18929400
C        5.70797420        4.00524360        0.39867196
C        6.63810170        4.84059130        1.35269880
C        7.50996870        2.19694240        0.42532708
C        8.42971600        3.12507470        1.35752370
C        7.53479200        4.02098860        9.31199460
C        8.45161020        4.82894310       10.25227000
C        5.82505860        2.21894220        2.17585390
C        6.62497730        3.11843640        3.14032670
C        7.47371050        2.25351610        4.01125640
C        8.47307490        3.12702760        4.88630820
C        7.53021110        4.04775780        2.26682280
C        8.42186040        4.86796980        3.16710310
C        5.81298700        2.21378340        5.76405490
C        6.61043560        3.19758950        6.61323290
C        5.68521440        4.01515050        7.52601680
C        6.67329980        4.85985030        8.46199350
C        7.50553980        2.24948390        7.48985960
C        8.38556480        3.11524050        8.42086610
C        7.65446830        3.95696790        5.86624020
C        8.48219510        4.91681690        6.63097800
C        5.75108480        5.78010480        9.36425650
C        6.72491740        6.62411450       10.22982500
C        5.75641880        7.47764150        0.48585546
C        6.59858030        8.38980940        1.31536270
C        7.53220740        5.73964080        0.44202069
C        8.42217140        6.54924050        1.33010080
C        7.57098880        7.50063300        9.34972660
C        8.45066490        8.45581050       10.23604500
C        5.73492340        5.75475250        2.21115650
C        6.62908300        6.60210710        3.17727220
C        5.74419040        7.59887150        4.04414570
C        6.64198810        8.35945980        4.91842760
C        7.63887060        5.81564340        4.01908100
C        8.36903540        6.68518480        4.93577240
C        7.53852720        7.45816010        2.19756340
C        8.36665600        8.40313420        3.07594950
C        5.78970490        5.85974910        5.76827660
C        6.63701960        6.70289590        6.69043890
C        5.83449690        7.45315350        7.56810060
C        6.67936620        8.42168470        8.45128930
C        7.54674310        5.85051270        7.59540470
C        8.46501760        6.64961590        8.44994110
C        7.50673550        7.54364740        5.80870620
C        8.46813200        8.54169250        6.64923960
N        5.70930820        3.93765080        3.91885780
