&CONTROL
calculation = 'scf'
restart_mode = 'from_scratch'
verbosity = 'high'
wf_collect = .true.
pseudo_dir='/home/arpank/pseudopotentials/'
tprnfor = .true.
/
&SYSTEM
ibrav = 0
ecutwfc = 60
tot_charge = -1
nspin = 2
tot_magnetization = 2.0
nbnd = 480
nat = 215
ntyp = 2
input_dft = 'PBE0'
exx_fraction = 0.18
ecutfock = 120
/
&ELECTRONS
conv_thr = 1D-8
diago_full_acc=.true.
mixing_beta = 0.3
/
&IONS
ion_dynamics='bfgs'
ion_positions='default'
/
K_POINTS gamma
ATOMIC_SPECIES
C  12.01099968  C_ONCV_PBE-1.0.upf
N  14.00699997  N_ONCV_PBE-1.0.upf
CELL_PARAMETERS angstrom
    10.65000000      0.00000000      0.00000000
     0.00000000     10.65000000      0.00000000
     0.00000000      0.00000000     10.65000000
ATOMIC_POSITIONS angstrom
C        9.22953350        9.31547730        9.36204860
C       10.18268500       10.25809100       10.20973200
C        9.28545630        0.46739659        0.37027123
C       10.25124800        1.30308850        1.21567310
C        0.42464696        9.36705750        0.50326440
C        1.36450450       10.23031300        1.35389460
C        0.43370841        0.50387780        9.27704510
C        1.31858820        1.37309680       10.27268100
C        9.37282920        9.33031450        2.20625440
C       10.17246800       10.15077400        3.06121110
C        9.26998440        0.39491571        3.93431540
C       10.17387800        1.32604520        4.89894630
C        0.46706918        9.30114950        3.95742740
C        1.42254990       10.22562200        4.89888640
C        0.44172757        0.47752074        2.14595850
C        1.25162540        1.37804790        3.13801840
C        9.29985240        9.33790450        5.78432230
C       10.17274400       10.23900700        6.66165340
C        9.32216310        0.45295680        7.54686270
C       10.18403300        1.32016170        8.38291420
C        0.42615675        9.30939130        7.57989990
C        1.29269550       10.24907400        8.47505560
C        0.43700670        0.47903439        5.79795910
C        1.35752040        1.30362770        6.59012210
C        9.36530110        2.21858250        9.26472940
C       10.21323000        3.12968290       10.19041400
C        9.30179960        4.08132530        0.40458016
C       10.17851900        4.86168740        1.24047310
C        0.43201914        2.31195090        0.41789562
C        1.36089280        3.08571550        1.32887390
C        0.51663416        3.99873060        9.29618560
C        1.35647660        4.90143230       10.17909200
C        9.30671670        2.25514160        2.24686750
C       10.18775000        3.07634690        3.11945010
C        9.30136400        4.00869730        3.99923360
C       10.18657800        4.92018150        4.87564150
C        0.48542916        2.21543920        4.00269350
C        1.35781500        3.02362340        4.84173230
C        0.43439314        3.97913770        2.17047990
C        1.30397190        4.80943620        3.07366940
C        9.32589850        2.19885860        5.74593710
C       10.24361100        3.05705420        6.66032210
C        9.36718070        3.96104030        7.54137680
C       10.23361800        4.96157860        8.42448960
C        0.46090325        2.26867950        7.46770430
C        1.32525010        3.16572190        8.37396450
C        0.42918689        3.92340500        5.75500480
C        1.28969800        4.86042600        6.55555740
C        9.36231650        5.76014630        9.37955020
C       10.15548500        6.66227520       10.15782800
C        9.30375860        7.49402390        0.51074212
C       10.30168900        8.42649310        1.34850720
C        0.38987466        5.69847130        0.47999093
C        1.26029590        6.56199370        1.36075120
C        0.41715041        7.54008730        9.36542530
C        1.30469320        8.51278140       10.21398400
C        9.24366370        5.80050000        2.22414920
C       10.24380400        6.67728410        3.07838140
C        9.33223480        7.51486440        3.94203220
C       10.17909700        8.47671200        4.85047040
C        0.47051203        5.71508770        3.99299450
C        1.35277340        6.65467360        4.86133590
C        0.51796895        7.51416170        2.17488980
C        1.34992610        8.44164620        3.14068030
C        9.33787210        5.72705290        5.66964420
C       10.24776000        6.69690170        6.58504160
C        9.30533030        7.65387520        7.53563050
C       10.20048800        8.41895690        8.45950340
C        0.53540547        5.84022680        7.50086400
C        1.30939250        6.67716390        8.42727940
C        0.40641996        7.53685160        5.73245870
C        1.27667120        8.38053600        6.62417790
C        2.21014650        9.35582320        9.34357020
C        3.10832740       10.22003200       10.20467600
C        2.21538720        0.50130184        0.43202366
C        3.09076550        1.33234890        1.26335380
C        4.01301710        9.28730670        0.45088812
C        4.86553780       10.19836400        1.41292400
C        4.05933310        0.44445489        9.28774660
C        4.81592960        1.32921420       10.22959600
C        2.26927310        9.32041890        2.25768620
C        3.13653790       10.27447100        3.19037610
C        2.18886550        0.49168092        3.89920550
C        3.11624250        1.28936940        4.90210730
C        3.95716230        9.33890440        4.07358020
C        4.84119260       10.22917000        4.91865740
C        4.01753240        0.46465703        2.27418860
C        4.82312110        1.35482340        3.11656660
C        2.25596400        9.33500430        5.84190460
C        3.13878080       10.17417300        6.69040590
C        2.21753380        0.46935572        7.58085460
C        3.10157800        1.31425100        8.48770410
C        3.89510010        9.28706410        7.55000120
C        4.90760710       10.24598300        8.45080460
C        3.93844090        0.47917535        5.81491740
C        4.82123710        1.36397410        6.61158880
C        2.26037920        2.17842660        9.37458730
C        3.08993150        3.08124610       10.23208800
C        2.30770500        3.97925130        0.49040644
C        3.16800510        4.90944990        1.35812330
C        3.98134550        2.21568580        0.49919771
C        4.92020080        3.11015740        1.36816000
C        3.95967860        3.95403640        9.29301380
C        4.88033070        4.89045530       10.19736200
C        2.16268330        2.20414400        2.22929220
C        3.06852930        3.16831150        3.17851570
C        2.23569500        3.98202260        3.98561120
C        3.06416870        4.92520650        4.83627310
C        4.01732680        2.13943490        4.05863090
C        4.85793480        3.08772490        4.88546300
C        4.04039240        3.93812460        2.23958560
C        4.94403000        4.88138020        3.12510850
C        2.31452070        2.18376160        5.81121450
C        3.13543300        3.07756930        6.64594590
C        2.19119520        3.99609100        7.53904270
C        3.10814170        4.86482080        8.43928320
C        3.94278240        2.20528110        7.59502020
C        4.95173570        3.10798240        8.49473150
C        3.98198910        4.03613310        5.71556740
C        4.90969050        4.85711130        6.65268410
C        2.23504410        5.77652230        9.29702630
C        3.05294600        6.64485700       10.23625400
C        2.17029810        7.54403850        0.51029362
C        3.08845320        8.49987440        1.39923550
C        3.99375340        5.79219730        0.41001841
C        4.86354190        6.59764540        1.28830130
C        3.98252820        7.49322890        9.31433630
C        4.92592170        8.38674540       10.21237300
C        2.21037450        5.74299770        2.30232300
C        3.06633360        6.66813990        3.10058430
C        2.22724060        7.57111600        4.00258470
C        3.07677700        8.45567910        4.88597810
C        3.96617680        5.75469700        3.97328230
C        4.86093190        6.65261140        4.86734330
C        3.98957580        7.54936210        2.21542280
C        4.90305940        8.35159390        3.02452350
C        2.18710110        5.83507390        5.71862020
C        3.10604940        6.67434620        6.59011860
C        2.23868400        7.55905610        7.62666260
C        3.07432530        8.41080720        8.41805730
C        3.97832020        5.76725230        7.55929640
C        4.91176260        6.67433040        8.36349110
C        3.97483260        7.55190400        5.73874140
C        4.81544120        8.40434120        6.68545360
C        5.81628710        9.28795880        9.36538770
C        6.64906470       10.23005100       10.18291100
C        5.78733220        0.40838515        0.49939696
C        6.71276630        1.39524790        1.34141660
C        7.53320460        9.33049930        0.41934687
C        8.42213450       10.18358500        1.27900390
C        7.53645210        0.44821638        9.28058770
C        8.44942170        1.34323220       10.16167200
C        5.80000700        9.30172470        2.22910660
C        6.58115600       10.15349700        3.10983940
C        5.74929280        0.40574221        4.03186930
C        6.63208130        1.29052420        4.86060060
C        7.47748990        9.32072310        4.05625740
C        8.43826850       10.24150900        4.85162720
C        7.56854840        0.50028829        2.21869920
C        8.44036830        1.31051740        3.16652540
C        5.72648380        9.29252800        5.81685330
C        6.63064220       10.16248200        6.63551000
C        5.76484150        0.46031760        7.51159380
C        6.66458660        1.41039650        8.40572060
C        7.50099050        9.38466180        7.45732660
C        8.39970020       10.17352500        8.45338130
C        7.48015600        0.46128441        5.74350660
C        8.40412000        1.30543720        6.65705320
C        5.78127670        2.26848840        9.31057000
C        6.56410040        3.13185050       10.22909400
C        5.71031140        3.99400030        0.49397128
C        6.64322730        4.82357340        1.35505980
C        7.59408820        2.25836590        0.47843258
C        8.39838450        3.10740720        1.34519910
C        7.54822380        4.00520950        9.32230120
C        8.41498450        4.91184680       10.16115000
C        5.79783330        2.17842740        2.22477800
C        6.60901290        3.05841500        3.19964220
C        7.48658990        2.17585930        4.01543920
C        8.40716340        3.07758700        4.82556390
C        7.48174270        3.98123840        2.28513420
C        8.47621390        4.84142720        3.09154860
C        5.81666620        2.20977810        5.70111080
C        6.69792630        3.15086300        6.65111190
C        5.81198940        3.99100070        7.59037290
C        6.76775810        4.91986470        8.38599130
C        7.55718120        2.26684220        7.49032780
C        8.44412200        3.18021030        8.49602270
C        7.64098860        3.90355200        5.77462500
C        8.46487820        4.79167240        6.68324000
C        5.75584610        5.77820060        9.32305600
C        6.69373180        6.66380360       10.17660700
C        5.83134890        7.55178700        0.44161792
C        6.63201070        8.34526200        1.40336000
C        7.61063060        5.74273080        0.50177837
C        8.39198710        6.63627020        1.33957780
C        7.59399530        7.58073460        9.27150470
C        8.44968650        8.40034080       10.28058100
C        5.82688280        5.69825220        2.17465030
C        6.67768650        6.58235510        3.14523160
C        5.74046210        7.45643730        3.95015680
C        6.63622880        8.37618340        4.90591890
C        7.59933260        5.82687570        3.92756210
C        8.38900950        6.66797450        4.84438990
C        7.49811020        7.54969530        2.22810760
C        8.41262590        8.46099860        3.10733770
C        5.74386060        5.84154610        5.88680610
C        6.64839710        6.67883190        6.64661990
C        5.80156160        7.50362110        7.56589350
C        6.73034220        8.44985860        8.41800990
C        7.57288620        5.73025180        7.50746690
C        8.51451460        6.72966370        8.44055840
C        7.62799970        7.51759980        5.82200150
C        8.41240720        8.43879180        6.60336910
N        5.74012140        3.89740690        3.87709670
