&CONTROL
calculation = 'scf'
restart_mode = 'from_scratch'
verbosity = 'high'
wf_collect = .true.
pseudo_dir='/home/arpank/pseudopotentials/'
tprnfor = .true.
/
&SYSTEM
ibrav = 0
ecutwfc = 60
tot_charge = -1
nspin = 2
tot_magnetization = 2.0
nbnd = 480
nat = 215
ntyp = 2
input_dft = 'PBE0'
exx_fraction = 0.18
ecutfock = 120
/
&ELECTRONS
conv_thr = 1D-8
diago_full_acc=.true.
mixing_beta = 0.3
/
&IONS
ion_dynamics='bfgs'
ion_positions='default'
/
K_POINTS gamma
ATOMIC_SPECIES
C  12.01099968  C_ONCV_PBE-1.0.upf
N  14.00699997  N_ONCV_PBE-1.0.upf
CELL_PARAMETERS angstrom
    10.65000000      0.00000000      0.00000000
     0.00000000     10.65000000      0.00000000
     0.00000000      0.00000000     10.65000000
ATOMIC_POSITIONS angstrom
C        9.21909760        9.21567290        9.23174130
C       10.17041400       10.17802600       10.26286500
C        9.32653620        0.43478245        0.47518725
C       10.20268400        1.35850620        1.30265080
C        0.43947904        9.24579710        0.43863554
C        1.36135070       10.13951300        1.35311760
C        0.36499997        0.53212126        9.32423630
C        1.38337490        1.29307010       10.24995200
C        9.30987150        9.36592240        2.20336790
C       10.29995000       10.19840100        3.08908470
C        9.31767210        0.44520657        3.92730370
C       10.19593300        1.34682410        4.86804020
C        0.43564115        9.38391180        3.96057010
C        1.35246850       10.16001000        4.83320370
C        0.54865637        0.43795918        2.21086510
C        1.38455460        1.35615120        3.10243840
C        9.28614080        9.34682480        5.71604200
C       10.17741000       10.16635700        6.66460300
C        9.25906760        0.45214928        7.55490840
C       10.19724300        1.34176760        8.41546920
C        0.42712287        9.31196060        7.54019670
C        1.31171650       10.21990000        8.35778270
C        0.42953218        0.40275920        5.69104030
C        1.30740730        1.29729710        6.56297820
C        9.35360290        2.23070420        9.32510640
C       10.19230400        3.07329720       10.13809800
C        9.35184590        3.98622000        0.46843502
C       10.24872000        4.88228300        1.35949700
C        0.40826424        2.20708390        0.42967842
C        1.30788180        3.14636990        1.33012380
C        0.48207295        3.92576170        9.26760480
C        1.35773380        4.96564260       10.20423800
C        9.30063490        2.29670360        2.21574120
C       10.24939400        3.16158810        3.10186330
C        9.23320220        3.97476750        4.07483650
C       10.25073200        4.87088350        4.80171420
C        0.52861350        2.21054380        3.98556300
C        1.38558130        3.03736050        4.79214550
C        0.42472621        3.99931620        2.25578300
C        1.30256810        4.91917840        3.14524770
C        9.34047070        2.22087770        5.76870580
C       10.22348600        3.08792270        6.66357200
C        9.33116150        3.99329330        7.52456040
C       10.23164900        4.84182060        8.43992620
C        0.48656900        2.25151940        7.51861810
C        1.33087380        3.08460290        8.50750770
C        0.39291894        3.94705600        5.77499060
C        1.28868600        4.84905340        6.73795220
C        9.32690650        5.72297530        9.39683080
C       10.17010900        6.63356620       10.22818000
C        9.35003950        7.54526210        0.45661078
C       10.23249300        8.44871120        1.36088720
C        0.45190202        5.78072330        0.47469490
C        1.25436540        6.63903160        1.37292230
C        0.51046503        7.54991350        9.26920810
C        1.32732750        8.38822210       10.22736300
C        9.37348860        5.77662620        2.23469570
C       10.18450600        6.70211260        3.11514980
C        9.28400000        7.57349720        3.96907600
C       10.23336100        8.43160030        4.90179980
C        0.48197156        5.78399890        4.04319410
C        1.29890420        6.64981650        4.90248310
C        0.47298319        7.55382510        2.22744100
C        1.30755300        8.48342920        3.15969430
C        9.39027880        5.74269680        5.71651430
C       10.12738700        6.60790610        6.54983010
C        9.24600720        7.48170340        7.53578310
C       10.20083700        8.44025170        8.39811100
C        0.44811563        5.81682920        7.60870970
C        1.33801290        6.58866810        8.47595600
C        0.44453645        7.49552200        5.72315530
C        1.31368660        8.40385490        6.64113870
C        2.27074860        9.35144050        9.31774730
C        3.06731280       10.16826000       10.24092500
C        2.29920880        0.38036635        0.48614850
C        3.14978680        1.34626640        1.36472740
C        4.01726500        9.30896210        0.47890335
C        4.88848290       10.22932700        1.32682640
C        3.93842880        0.42754454        9.38885100
C        4.92264090        1.38892450       10.23626500
C        2.23001610        9.29245110        2.19448050
C        3.10561990       10.14829200        3.11923590
C        2.26886830        0.46455512        4.00309910
C        3.12104110        1.40158670        4.86865520
C        4.03464360        9.23802610        3.95966330
C        4.80865130       10.28359700        4.85899740
C        3.95263390        0.48740161        2.22904350
C        4.88877240        1.32631520        3.06698660
C        2.16926430        9.35154940        5.74125880
C        3.04794110       10.26122000        6.70263930
C        2.18486320        0.50396926        7.51577920
C        3.03355480        1.41247700        8.47190450
C        4.02631470        9.30245930        7.56656550
C        4.88566010       10.24657000        8.45622100
C        3.99080220        0.42978922        5.75979960
C        4.94204590        1.36985860        6.62421180
C        2.23246510        2.23898080        9.35653300
C        3.12648570        3.12726630       10.17062900
C        2.21071640        4.05179630        0.36375952
C        3.11875530        4.86654510        1.37865040
C        4.00717180        2.18767310        0.44746354
C        4.91203080        3.06907160        1.31301380
C        4.03592890        3.97846790        9.32712620
C        4.93423260        4.86191340       10.15844100
C        2.16696580        2.22423180        2.22396330
C        3.07497390        3.14832790        3.09120250
C        2.20082830        3.99662860        4.03144060
C        3.07777530        4.83691330        4.89726020
C        3.96153780        2.27688400        3.95843880
C        4.93380090        3.11436530        4.79516390
C        3.99375420        3.99996860        2.17120890
C        4.89535860        4.90527790        3.06607370
C        2.21228690        2.27709870        5.76183170
C        3.05876780        3.07543790        6.67699850
C        2.24852630        4.02475430        7.56327140
C        3.10042560        4.91879470        8.47943070
C        4.00643660        2.20411280        7.49551560
C        4.86479780        3.07569270        8.44612050
C        3.98420290        4.01832320        5.78581350
C        4.87447020        4.86404500        6.68921180
C        2.26739950        5.79603510        9.34467590
C        3.09565930        6.68507880       10.30649800
C        2.26990030        7.46416900        0.46688902
C        3.12786000        8.36867990        1.31943920
C        4.06943790        5.67981000        0.49082244
C        4.93484740        6.69364200        1.34350680
C        3.98823510        7.57441490        9.28944890
C        4.90043020        8.41513400       10.20490600
C        2.24868870        5.69953110        2.23286930
C        3.07675330        6.66004310        3.16446700
C        2.15580670        7.50379840        4.05674230
C        3.06079400        8.40821920        4.87525430
C        4.00133670        5.67206710        3.99848560
C        4.89402100        6.55473070        4.88898840
C        3.97742030        7.49081670        2.26682890
C        4.84250860        8.38902790        3.11594480
C        2.17209880        5.74852990        5.83116320
C        3.08755700        6.57752880        6.72117290
C        2.15892960        7.47357550        7.56060980
C        3.12317980        8.38526960        8.42447810
C        3.97976450        5.67691620        7.58682120
C        4.86919300        6.64874920        8.40438020
C        3.96180040        7.50131550        5.76547940
C        4.88016070        8.42584810        6.67953510
C        5.80576480        9.31531620        9.22905830
C        6.67860900       10.18182000       10.18722500
C        5.73188140        0.45598369        0.36610171
C        6.67278110        1.31797020        1.31123750
C        7.57371410        9.34487030        0.47490864
C        8.46570490       10.19108100        1.30271790
C        7.50493210        0.43363937        9.19765970
C        8.40225940        1.23010750       10.20066200
C        5.80327070        9.32506200        2.20897210
C        6.67427030       10.19887700        3.12696320
C        5.74652130        0.44161906        3.94137460
C        6.61936380        1.39385100        4.84451010
C        7.58674480        9.36202770        4.00612120
C        8.39362590       10.27056900        4.88960050
C        7.52894460        0.41668196        2.17285160
C        8.39559150        1.32608120        3.08658660
C        5.84593890        9.40906220        5.72678320
C        6.71298200       10.16276800        6.62060280
C        5.78414530        0.46428761        7.56485000
C        6.60857560        1.34092940        8.44502730
C        7.50817990        9.33829740        7.57529660
C        8.41733720       10.17474300        8.41858440
C        7.59613180        0.51852404        5.70415070
C        8.44715870        1.42349230        6.64376040
C        5.71750060        2.22482950        9.31067330
C        6.66746640        3.10787920       10.18320600
C        5.79893260        3.94628410        0.46655850
C        6.62234710        4.85735080        1.34856100
C        7.61374140        2.22414760        0.40646211
C        8.48627140        3.19422380        1.26373180
C        7.47318170        4.01710650        9.30693010
C        8.44063340        4.92905120       10.27051800
C        5.81073180        2.17486000        2.22596520
C        6.60448340        3.13235090        3.07312280
C        7.54905170        2.29302780        3.98878890
C        8.45972080        3.16762430        4.87849720
C        7.54146780        3.99690180        2.20814030
C        8.37063820        4.93794170        3.10968080
C        5.77818030        2.29232480        5.71839440
C        6.67097540        3.10959900        6.62654200
C        5.72348000        4.04373600        7.51197700
C        6.62788200        4.89012450        8.45543110
C        7.53214250        2.22175430        7.59100340
C        8.40327390        3.11721450        8.45964200
C        7.60766630        3.96062910        5.86051430
C        8.44636750        4.85299510        6.73693700
C        5.80159190        5.86734960        9.29824040
C        6.65856260        6.70430510       10.24524000
C        5.75071040        7.53774920        0.48242723
C        6.70081900        8.49228590        1.38369240
C        7.52565310        5.75725050        0.48362954
C        8.48427480        6.72297660        1.39779190
C        7.51132930        7.49181120        9.34421170
C        8.36456790        8.43575870       10.22771000
C        5.75591800        5.70115760        2.31388830
C        6.68296830        6.64572680        3.18183440
C        5.73768710        7.49849390        4.00179270
C        6.64415440        8.41491290        4.81932530
C        7.58222420        5.79517240        3.91658130
C        8.44759330        6.66081830        4.85140530
C        7.51310710        7.56431670        2.28809610
C        8.44008460        8.54018320        3.07881280
C        5.73058250        5.76229200        5.85494270
C        6.57615940        6.68272060        6.60834240
C        5.67310220        7.53797560        7.51674470
C        6.73641900        8.42024630        8.36392860
C        7.63281840        5.76780310        7.49545660
C        8.40222440        6.62622660        8.44438420
C        7.53115910        7.50834190        5.73655800
C        8.45377560        8.44033630        6.70731510
N        5.65665200        4.00372890        3.90482710
