&CONTROL
calculation = 'scf'
restart_mode = 'from_scratch'
verbosity = 'high'
wf_collect = .true.
pseudo_dir='/home/arpank/pseudopotentials/'
tprnfor = .true.
/
&SYSTEM
ibrav = 0
ecutwfc = 60
tot_charge = -1
nspin = 2
tot_magnetization = 2.0
nbnd = 480
nat = 215
ntyp = 2
input_dft = 'PBE0'
exx_fraction = 0.18
ecutfock = 120
/
&ELECTRONS
conv_thr = 1D-8
diago_full_acc=.true.
mixing_beta = 0.3
/
&IONS
ion_dynamics='bfgs'
ion_positions='default'
/
K_POINTS gamma
ATOMIC_SPECIES
C  12.01099968  C_ONCV_PBE-1.0.upf
N  14.00699997  N_ONCV_PBE-1.0.upf
CELL_PARAMETERS angstrom
    10.65000000      0.00000000      0.00000000
     0.00000000     10.65000000      0.00000000
     0.00000000      0.00000000     10.65000000
ATOMIC_POSITIONS angstrom
C        9.29577250        9.37702430        9.31610350
C       10.20735600       10.25942800       10.25852200
C        9.34316750        0.43332311        0.45540027
C       10.22133700        1.42213810        1.33455890
C        0.41639869        9.28140350        0.44579169
C        1.29338640       10.20447100        1.26703950
C        0.43879297        0.45802725        9.37593000
C        1.33823510        1.27108040       10.19079700
C        9.29120040        9.33254520        2.21426470
C       10.25893700       10.24407700        3.14508530
C        9.31543700        0.44997214        4.05446950
C       10.18955800        1.32873010        4.86348690
C        0.39512411        9.32106050        3.95078940
C        1.32189410       10.23430100        4.85412270
C        0.45763914        0.46517233        2.25499050
C        1.35107910        1.31075540        3.10757480
C        9.23995040        9.32199970        5.79595030
C       10.20944800       10.24538300        6.57673710
C        9.28784110        0.44620441        7.50874290
C       10.16354300        1.30116770        8.50983130
C        0.42735089        9.31679630        7.55666520
C        1.27599340       10.19778700        8.50090190
C        0.47432698        0.46772008        5.72610650
C        1.40643670        1.31043420        6.69505640
C        9.30907930        2.15853000        9.37758010
C       10.23579700        3.04981400       10.21906500
C        9.32879480        3.93746910        0.48380047
C       10.25408400        4.81818180        1.32678880
C        0.48692807        2.15346130        0.52228881
C        1.37502650        3.04114980        1.37863710
C        0.38725502        3.97878280        9.35919470
C        1.31120830        4.93557920       10.21125200
C        9.34342750        2.25203570        2.20863880
C       10.20194800        3.10060520        3.16093330
C        9.26340050        4.06187760        3.96541440
C       10.15261800        4.93660560        4.89216280
C        0.39590277        2.18343870        4.02560260
C        1.30414450        3.05984140        4.82357690
C        0.47276210        3.94617050        2.25476300
C        1.36170050        4.77929420        3.06647980
C        9.35431460        2.25866790        5.76603330
C       10.24153400        3.16296070        6.64996640
C        9.28952000        3.99724840        7.58046320
C       10.14626300        4.91586940        8.47224340
C        0.42430514        2.19712750        7.58382560
C        1.36640180        3.07831190        8.49905530
C        0.43180006        3.99754200        5.74038040
C        1.38769830        4.88527910        6.64581440
C        9.41877850        5.77910910        9.31656960
C       10.17788000        6.62415490       10.18978300
C        9.27984490        7.58090050        0.45413849
C       10.15652300        8.43419590        1.29281740
C        0.49172535        5.84711710        0.50094159
C        1.35877480        6.65733820        1.44719360
C        0.44166474        7.59633910        9.33482430
C        1.35811240        8.40137500       10.21496200
C        9.28539840        5.75621330        2.24230520
C       10.12697300        6.72317600        3.07430310
C        9.36731510        7.52668330        3.96781380
C       10.22260500        8.42398340        4.89188030
C        0.42805594        5.69646360        3.96526340
C        1.30750720        6.66800320        4.81935180
C        0.47863403        7.56066470        2.22097460
C        1.30624580        8.46469650        3.07608340
C        9.34691470        5.77557650        5.77041380
C       10.14506700        6.68004410        6.65729540
C        9.31785590        7.50463260        7.54227400
C       10.19307100        8.42709450        8.36373620
C        0.47641158        5.75156580        7.51946960
C        1.36296460        6.69652100        8.42138440
C        0.48743932        7.57491760        5.76642030
C        1.34131580        8.53671720        6.63377210
C        2.21136620        9.36207850        9.34525480
C        3.13484210       10.22442100       10.29889600
C        2.20062530        0.48791618        0.45534348
C        3.14143730        1.39882170        1.22100870
C        4.03348870        9.32184110        0.47415098
C        4.91785700       10.18593400        1.33709570
C        3.95785170        0.46035808        9.35813470
C        4.86714860        1.35504270       10.23876100
C        2.18736170        9.39570440        2.22600750
C        3.17885640       10.21220200        3.03027430
C        2.29288660        0.48756070        3.98864630
C        3.15763110        1.33572610        4.94850310
C        4.00000980        9.37380980        4.00356900
C        4.91422300       10.21786100        4.87895240
C        3.99057300        0.36699524        2.23590190
C        4.88321150        1.30388130        3.15118530
C        2.24397240        9.39739970        5.71536760
C        3.12378200       10.23908300        6.67939980
C        2.23416750        0.41952347        7.60250370
C        3.13909420        1.31676460        8.39914770
C        3.93057350        9.34818780        7.54406630
C        4.84345950       10.17958300        8.38162270
C        4.01509170        0.52653744        5.75863650
C        4.90711410        1.36188850        6.55561630
C        2.18618010        2.26160020        9.28839130
C        3.08633650        3.21867140       10.17119500
C        2.22144440        4.01736480        0.44982041
C        3.11054080        4.85460670        1.33926070
C        4.00702690        2.23317800        0.42462447
C        4.91328620        3.05218480        1.31708610
C        3.92417350        4.03762150        9.33748760
C        4.87123140        4.72258420       10.13055300
C        2.23522530        2.14001440        2.15157680
C        3.10963800        3.03733680        3.11538250
C        2.18466030        4.03855880        3.95606090
C        3.20331790        4.87900350        4.95538760
C        3.99328570        2.14728050        3.98569180
C        4.88722180        3.11273920        4.84604180
C        3.98220660        4.04503420        2.21970550
C        4.91363370        4.86388460        3.11074550
C        2.18095840        2.16657460        5.73296280
C        3.14392740        3.10848840        6.64107570
C        2.16937070        3.99527820        7.48062470
C        3.11509420        4.87891740        8.45427970
C        4.02115060        2.23085760        7.51917110
C        4.87414860        3.11852970        8.43287090
C        4.01945240        3.94537640        5.73901830
C        4.87817270        4.86625530        6.59194320
C        2.25319740        5.79277250        9.32351380
C        3.06242130        6.72680170       10.29835300
C        2.21012640        7.52811970        0.45198660
C        3.10574760        8.43885240        1.29807120
C        4.03404110        5.74855230        0.41619653
C        4.93118960        6.64851390        1.24113830
C        3.98300540        7.63907380        9.37656070
C        4.88194960        8.37212490       10.22300900
C        2.17168760        5.77139960        2.18606250
C        3.10550640        6.70097810        3.07117710
C        2.22784670        7.55017130        3.90632210
C        3.10211560        8.47021140        4.84516810
C        3.97880760        5.82737480        3.92769040
C        4.80237340        6.58499270        4.87703500
C        3.88400840        7.55221750        2.18766800
C        4.83400310        8.39150900        3.08491690
C        2.22318590        5.81018450        5.67944760
C        3.02782860        6.72307570        6.64035170
C        2.20836160        7.59777950        7.58902860
C        3.06218380        8.49212090        8.45451260
C        3.91641800        5.74569600        7.57303820
C        4.88976980        6.68317960        8.42303820
C        3.94179100        7.58256030        5.77666690
C        4.85483460        8.43928340        6.69269170
C        5.72841440        9.29729110        9.32062730
C        6.67669890       10.24369600       10.19455000
C        5.74252310        0.46640254        0.45670129
C        6.68824460        1.25403110        1.32549870
C        7.50373240        9.31580340        0.50031290
C        8.43341830       10.16958400        1.37240290
C        7.52735180        0.45374208        9.31925330
C        8.45328780        1.34289450       10.19212500
C        5.80797260        9.29496700        2.26960230
C        6.71959330       10.20027400        3.15587790
C        5.81553880        0.42452874        4.01687670
C        6.73266620        1.25359880        4.86676370
C        7.59090270        9.30875920        4.04793300
C        8.40647600       10.13238300        4.94539710
C        7.56727180        0.48210796        2.15696280
C        8.47297850        1.41821530        3.11997890
C        5.78788230        9.30168630        5.73397690
C        6.65177970       10.18726200        6.69592640
C        5.74406480        0.48455043        7.49977670
C        6.61127280        1.35120490        8.40257710
C        7.60795500        9.29891900        7.55210110
C        8.36264950       10.26956300        8.43229130
C        7.47506460        0.40255047        5.75633480
C        8.44464100        1.33518400        6.65042050
C        5.79277190        2.16514730        9.31173530
C        6.62322780        3.11794480       10.16121400
C        5.69463900        3.92613340        0.45437218
C        6.64654210        4.75961830        1.27809370
C        7.57686120        2.19040790        0.43911952
C        8.47347020        3.07196320        1.36031030
C        7.55404120        3.98789510        9.36958640
C        8.44393450        4.92640700       10.19072600
C        5.77472470        2.18170130        2.20855840
C        6.58407410        3.09564120        3.13980290
C        7.53121460        2.19363480        4.07866590
C        8.42030030        3.15171440        4.85817580
C        7.52343620        3.93931180        2.23636500
C        8.38749690        4.89724350        3.17921730
C        5.83472090        2.23506810        5.75564950
C        6.76282540        3.10931940        6.65161180
C        5.78134920        4.00146360        7.47812760
C        6.65078760        4.90812610        8.41440030
C        7.58283830        2.18539240        7.60869650
C        8.40588360        3.16823790        8.45354740
C        7.66464310        4.00076650        5.82959540
C        8.37926780        4.95805020        6.67008200
C        5.73949860        5.67817630        9.28715810
C        6.65941780        6.65671280       10.22152300
C        5.71749010        7.55573140        0.45460909
C        6.66945480        8.37665980        1.32660630
C        7.56435380        5.68603710        0.40535133
C        8.40806000        6.62967750        1.31416540
C        7.58961710        7.45823320        9.36370690
C        8.47594710        8.44135620       10.19432400
C        5.80203670        5.74595620        2.22399630
C        6.59845920        6.56297120        3.05791890
C        5.73932130        7.49202300        3.93596670
C        6.68173810        8.36833110        4.86105830
C        7.56759870        5.78775460        3.90866600
C        8.36115750        6.64171770        4.82705360
C        7.55099110        7.56426190        2.27081790
C        8.48218640        8.42845030        3.10274350
C        5.68808670        5.81618020        5.83421310
C        6.68333370        6.62451110        6.60705620
C        5.77059760        7.56394810        7.61010900
C        6.68780580        8.37045220        8.42928410
C        7.49964530        5.79341520        7.57815250
C        8.46260900        6.64452620        8.40633110
C        7.53916970        7.52681420        5.75171360
C        8.48540910        8.47143190        6.70193770
N        5.71755920        3.92601430        3.91123920
