&CONTROL
calculation = 'scf'
restart_mode = 'from_scratch'
verbosity = 'high'
wf_collect = .true.
pseudo_dir='/home/arpank/pseudopotentials/'
tprnfor = .true.
/
&SYSTEM
ibrav = 0
ecutwfc = 60
tot_charge = -1
nspin = 2
tot_magnetization = 2.0
nbnd = 480
nat = 215
ntyp = 2
input_dft = 'PBE0'
exx_fraction = 0.18
ecutfock = 120
/
&ELECTRONS
conv_thr = 1D-8
diago_full_acc=.true.
mixing_beta = 0.3
/
&IONS
ion_dynamics='bfgs'
ion_positions='default'
/
K_POINTS gamma
ATOMIC_SPECIES
C  12.01099968  C_ONCV_PBE-1.0.upf
N  14.00699997  N_ONCV_PBE-1.0.upf
CELL_PARAMETERS angstrom
    10.65000000      0.00000000      0.00000000
     0.00000000     10.65000000      0.00000000
     0.00000000      0.00000000     10.65000000
ATOMIC_POSITIONS angstrom
C        9.39972850        9.30203220        9.27700730
C       10.19735900       10.24317700       10.17049600
C        9.33247950        0.44225265        0.48430406
C       10.19739300        1.33748080        1.30194110
C        0.50429053        9.33042590        0.36295571
C        1.42012950       10.17827200        1.28726620
C        0.45909043        0.44213809        9.36707270
C        1.32669330        1.33639970       10.24719400
C        9.40707530        9.27846070        2.16481600
C       10.26950600       10.23985800        3.06264370
C        9.30000740        0.42605602        3.98756510
C       10.22906800        1.27096860        4.85880860
C        0.44058253        9.35233430        3.96704710
C        1.36386290       10.16726900        4.92076540
C        0.41614504        0.42749571        2.16127880
C        1.34972030        1.31462800        3.11963280
C        9.33997690        9.28657970        5.74861470
C       10.17971800       10.21865500        6.65388350
C        9.27688510        0.46027981        7.50950180
C       10.20715700        1.35216560        8.37648940
C        0.47371949        9.23341170        7.52892100
C        1.30181780       10.17849500        8.45211900
C        0.48903131        0.45896302        5.78797990
C        1.32727400        1.33288730        6.61105380
C        9.32879710        2.18139620        9.33133670
C       10.27120600        3.10564120       10.24821700
C        9.29841210        4.03057890        0.41910299
C       10.20783200        4.91909480        1.37590830
C        0.46698922        2.23843340        0.48812167
C        1.32564940        3.05816700        1.31912420
C        0.41126142        3.92816420        9.28713090
C        1.22722770        4.88596020       10.24013400
C        9.31371900        2.19810940        2.31942660
C       10.20771000        3.01883110        3.20787550
C        9.28735260        3.93645910        3.98153950
C       10.19330500        4.88374530        4.89996010
C        0.41125896        2.24471710        4.03280970
C        1.38978910        3.09674470        4.86911710
C        0.46629598        3.99221620        2.24464260
C        1.28234490        4.86802030        3.10188450
C        9.32115730        2.19999580        5.76977320
C       10.16516700        3.03386430        6.59278580
C        9.30488700        3.97260720        7.64265980
C       10.13802700        4.87117370        8.44109670
C        0.46315680        2.15319440        7.56314970
C        1.32481460        3.07584550        8.44221590
C        0.44947481        4.00609840        5.79279890
C        1.24459170        4.80911480        6.66314870
C        9.25847600        5.77432870        9.31975990
C       10.21004400        6.69205030       10.18679000
C        9.32679730        7.60261680        0.47949360
C       10.32546700        8.51645660        1.37514860
C        0.38796519        5.79496960        0.48984804
C        1.34441330        6.63032040        1.35337860
C        0.44781991        7.53478770        9.26147590
C        1.37591450        8.39085250       10.19830400
C        9.34927550        5.80090000        2.20083490
C       10.25570200        6.63110730        3.01673120
C        9.37975390        7.47734580        4.01732430
C       10.22337300        8.41646760        4.92140880
C        0.45262208        5.74404840        3.93751020
C        1.38251870        6.73758120        4.87767300
C        0.46059046        7.60406100        2.21233680
C        1.30728580        8.45812800        3.12582540
C        9.34121010        5.72044250        5.70895630
C       10.29455500        6.66353440        6.64412140
C        9.39389940        7.51319820        7.51769360
C       10.22310600        8.46883540        8.39500860
C        0.45476953        5.74573100        7.52908090
C        1.35562820        6.68438620        8.44016230
C        0.55777725        7.52119920        5.80681750
C        1.40813130        8.43899890        6.66200700
C        2.24082720        9.35586330        9.37471340
C        3.18493910       10.17910000       10.22088000
C        2.33197380        0.40841095        0.47430910
C        3.09933460        1.42550570        1.31253870
C        3.98184420        9.28235050        0.52908659
C        4.91579290       10.19725300        1.30559510
C        4.03857680        0.42616958        9.35027830
C        4.89235900        1.34440680       10.25793200
C        2.26265240        9.36177200        2.26948390
C        3.14106280       10.19042000        3.11141570
C        2.25318820        0.41939370        4.01197650
C        3.13963220        1.34109400        4.87590570
C        4.02177710        9.39446310        4.03347010
C        4.94904670       10.22422000        4.92988300
C        3.93083700        0.45958272        2.28209440
C        4.82445770        1.36668220        3.10508130
C        2.19918730        9.25502020        5.76227480
C        3.05050340       10.09397500        6.70389340
C        2.24504380        0.44377356        7.53791520
C        3.15007770        1.41056820        8.41469040
C        3.90933480        9.33618010        7.62009480
C        4.91479390       10.18476700        8.45358190
C        3.97784780        0.41768669        5.74856250
C        4.84057840        1.33193750        6.66885840
C        2.29205900        2.18037600        9.31888790
C        3.14634480        3.08363010       10.16604300
C        2.22127260        3.97107850        0.44626259
C        3.05578870        4.84736380        1.31293790
C        3.95852110        2.19594400        0.41461440
C        4.83262280        3.16923990        1.35747640
C        3.96101480        3.99303130        9.28533710
C        4.86104550        4.90891550       10.19846900
C        2.14429100        2.20714260        2.27295590
C        2.97398100        3.12499410        3.15396430
C        2.13788720        4.05037410        4.00781840
C        3.06576120        4.87847220        4.87151970
C        3.95171260        2.14984790        4.00367520
C        4.89135460        3.12462840        4.83823900
C        3.97727170        4.00294800        2.18074770
C        4.86583070        4.83730820        3.09133920
C        2.24239540        2.27606540        5.75377440
C        3.13898940        3.12986010        6.63964360
C        2.18675120        3.95329830        7.56547690
C        3.04928960        4.85175700        8.34239680
C        3.94534990        2.23332170        7.52422850
C        4.85011870        3.21630330        8.45182200
C        3.98795390        3.97649470        5.77700140
C        4.87935300        4.91196110        6.56978440
C        2.25223940        5.73141540        9.35653380
C        3.02671570        6.70023760       10.18475100
C        2.25192520        7.58646010        0.44650359
C        3.14073670        8.40072310        1.31490950
C        3.92360040        5.77296740        0.47986281
C        4.92712650        6.71525120        1.42027910
C        3.98141300        7.51853240        9.30325420
C        4.90313390        8.41991060       10.15767300
C        2.18365660        5.76893780        2.29093050
C        3.17918480        6.60420290        3.15837670
C        2.26953100        7.55282280        3.88780600
C        3.16328320        8.42865700        4.89621040
C        3.98260280        5.83939490        4.00215240
C        4.83574170        6.65134050        4.88977290
C        4.05833110        7.55146210        2.22141400
C        4.92954290        8.42341690        3.13914920
C        2.18628680        5.81582360        5.74225140
C        3.10243900        6.64504660        6.60338220
C        2.28243090        7.54442470        7.51321050
C        3.10092990        8.44702580        8.49389150
C        3.99271960        5.76273270        7.53173310
C        4.88952360        6.69090440        8.40634460
C        4.00658710        7.51504640        5.77560430
C        4.86804960        8.48759550        6.60850570
C        5.70217850        9.33696160        9.34348410
C        6.58070640       10.21007400       10.29018700
C        5.72532060        0.44450663        0.39098728
C        6.57486930        1.26182900        1.25975670
C        7.53821380        9.37228060        0.46258661
C        8.40126980       10.19959400        1.32520740
C        7.54355770        0.37543300        9.35140630
C        8.41771470        1.38086180       10.21406200
C        5.80679650        9.43791260        2.20847720
C        6.63541020       10.26621400        3.09684850
C        5.75972300        0.41640990        3.96560790
C        6.64567900        1.29012530        4.89957800
C        7.48188580        9.33398570        3.95482540
C        8.36354120       10.12091500        4.90527380
C        7.52818120        0.52183707        2.18823030
C        8.35616540        1.31380430        3.13297230
C        5.79022660        9.30366830        5.73597050
C        6.69855390       10.13325900        6.66707910
C        5.74896110        0.40696290        7.57273680
C        6.62277660        1.26311840        8.37151350
C        7.53484820        9.23820270        7.58474310
C        8.41153280       10.22580300        8.47702810
C        7.55831680        0.43547091        5.83356560
C        8.35353350        1.40403080        6.67132030
C        5.79792780        2.31659600        9.28693180
C        6.58494410        3.14495010       10.17403000
C        5.75944700        4.01677770        0.47710541
C        6.64651730        4.84759160        1.41443920
C        7.50067140        2.24568790        0.40739754
C        8.41555050        3.08488370        1.33638010
C        7.59100750        3.99303480        9.32939720
C        8.41391590        4.87791660       10.19047700
C        5.70720600        2.17161700        2.16669780
C        6.57140370        3.05584490        3.14914460
C        7.52234440        2.23439790        3.96582330
C        8.39524830        3.10199780        4.86044220
C        7.51779820        3.95781540        2.18625500
C        8.37251310        4.91679490        3.11664510
C        5.76073670        2.27259920        5.72233350
C        6.70140820        3.15758900        6.58333090
C        5.79538210        4.00565500        7.48999620
C        6.73505760        4.91565290        8.35305530
C        7.51983230        2.25076000        7.53570530
C        8.40582540        3.07726900        8.44931920
C        7.55812000        4.00916140        5.79983310
C        8.42919440        4.81080370        6.68683630
C        5.78898960        5.78862660        9.27308840
C        6.61870980        6.57284720       10.21719700
C        5.78417710        7.54890690        0.46242651
C        6.70660220        8.45903190        1.37351850
C        7.52545200        5.79456100        0.46766816
C        8.47697790        6.69472330        1.33473890
C        7.58441810        7.54883680        9.32473150
C        8.48007720        8.44206130       10.20608400
C        5.77180010        5.66600090        2.27927220
C        6.71558090        6.63927720        3.12461350
C        5.79563200        7.58006950        3.99085430
C        6.64914590        8.43424040        4.90725520
C        7.66416710        5.83752320        3.91518580
C        8.42347730        6.63654250        4.87341490
C        7.58477990        7.59722870        2.20398840
C        8.47928230        8.48224460        3.12430520
C        5.61588950        5.89124190        5.78688010
C        6.62106440        6.65963910        6.62143220
C        5.77802490        7.53461210        7.50119920
C        6.61946810        8.36734340        8.47704910
C        7.52289560        5.77381830        7.52378820
C        8.40342580        6.67999590        8.40463260
C        7.53229840        7.56701230        5.71644770
C        8.41960680        8.46018460        6.66121420
N        5.71650470        3.91995530        3.88159390
