&CONTROL
calculation = 'scf'
restart_mode = 'from_scratch'
verbosity = 'high'
wf_collect = .true.
pseudo_dir='/home/arpank/pseudopotentials/'
tprnfor = .true.
/
&SYSTEM
ibrav = 0
ecutwfc = 60
tot_charge = -1
nspin = 2
tot_magnetization = 2.0
nbnd = 480
nat = 215
ntyp = 2
input_dft = 'PBE0'
exx_fraction = 0.18
ecutfock = 120
/
&ELECTRONS
conv_thr = 1D-8
diago_full_acc=.true.
mixing_beta = 0.3
/
&IONS
ion_dynamics='bfgs'
ion_positions='default'
/
K_POINTS gamma
ATOMIC_SPECIES
C  12.01099968  C_ONCV_PBE-1.0.upf
N  14.00699997  N_ONCV_PBE-1.0.upf
CELL_PARAMETERS angstrom
    10.65000000      0.00000000      0.00000000
     0.00000000     10.65000000      0.00000000
     0.00000000      0.00000000     10.65000000
ATOMIC_POSITIONS angstrom
C        9.30399230        9.35923370        9.31660220
C       10.21908800       10.18953900       10.20669400
C        9.30851930        0.47609194        0.51739800
C       10.20551600        1.29401260        1.32005210
C        0.42915740        9.31547550        0.52065506
C        1.32572580       10.19120900        1.26859350
C        0.46904398        0.45638226        9.32363240
C        1.36668330        1.33930500       10.15817800
C        9.25054590        9.38494270        2.15943490
C       10.15023200       10.17359300        3.08390920
C        9.27033790        0.49454683        3.97027880
C       10.18017800        1.30280910        4.90204540
C        0.45773348        9.30237790        3.98811340
C        1.29071720       10.17033500        4.89788930
C        0.48491533        0.42603265        2.19104870
C        1.35552140        1.34354040        3.11871620
C        9.31316660        9.35190120        5.82116280
C       10.21750200       10.23709800        6.64820100
C        9.31559180        0.49681063        7.54671650
C       10.17688400        1.30721300        8.41179510
C        0.43462502        9.35081320        7.49598780
C        1.40833490       10.15770500        8.47446350
C        0.38438643        0.44668016        5.80635520
C        1.33222210        1.31852320        6.68124220
C        9.25993110        2.23263290        9.30784370
C       10.19075700        3.09706480       10.24164900
C        9.26561360        3.99209940        0.41921401
C       10.19452600        4.88742090        1.31259570
C        0.45709197        2.21699590        0.41293235
C        1.29451110        3.13702920        1.31094220
C        0.46361588        3.99562790        9.27328560
C        1.27340760        4.87918600       10.20897600
C        9.25628560        2.12405310        2.20937860
C       10.23394800        3.10800700        3.10668040
C        9.33928740        4.00408920        3.95153340
C       10.23825000        4.92296860        4.86057440
C        0.38924620        2.19959860        3.96987250
C        1.25943090        3.11635760        4.90068980
C        0.43116240        3.97565860        2.17340590
C        1.30522400        4.88845680        3.03511250
C        9.34610090        2.28718350        5.75875430
C       10.21633100        3.07071920        6.71227700
C        9.34786240        4.01351640        7.54248740
C       10.20563100        4.92965110        8.39303420
C        0.42167542        2.17326070        7.62531790
C        1.34967740        3.10750850        8.47835310
C        0.52130081        3.95426980        5.75837930
C        1.35843850        4.84504370        6.58250190
C        9.29267540        5.78464200        9.35160470
C       10.27186300        6.65534840       10.22642800
C        9.45767290        7.54151200        0.46115591
C       10.23414000        8.44968310        1.28666190
C        0.50036498        5.84458530        0.42075897
C        1.33314790        6.60165640        1.37704640
C        0.46235101        7.57153130        9.33484120
C        1.34540200        8.40113080       10.24967500
C        9.33106570        5.75326700        2.15331560
C       10.18126800        6.63790530        3.10608430
C        9.32434250        7.60885030        3.96797510
C       10.23401200        8.50139700        4.84327870
C        0.47297232        5.71330120        3.98855470
C        1.31329380        6.54779640        4.88493320
C        0.41896178        7.56067860        2.33037430
C        1.37280090        8.45167660        3.23083200
C        9.34584520        5.74049870        5.73531220
C       10.24392500        6.69437500        6.67876490
C        9.31103890        7.49524990        7.49607380
C       10.22834100        8.46600190        8.42030030
C        0.44167493        5.76675820        7.47894540
C        1.34420910        6.67709350        8.47914690
C        0.47500171        7.58978530        5.76683110
C        1.38578940        8.39533390        6.66632440
C        2.22236580        9.29098990        9.38619120
C        3.16015000       10.15896000       10.20910800
C        2.27600770        0.44610380        0.37644868
C        3.05760940        1.33265090        1.34013520
C        3.99949700        9.39098880        0.44321102
C        4.87338100       10.19706500        1.40817770
C        4.01046590        0.35679198        9.33743920
C        4.90510190        1.30551060       10.18663100
C        2.13063920        9.29432990        2.23277310
C        3.16081420       10.25040800        3.17566870
C        2.16221560        0.52075266        4.08346200
C        3.15944540        1.32953270        4.92943130
C        3.94730220        9.34595870        4.02536600
C        4.84456490       10.20263700        4.86383030
C        4.00606710        0.44794775        2.12596990
C        4.90137000        1.35757260        3.16049100
C        2.22121420        9.31693290        5.77627880
C        3.15981470       10.18574700        6.67933540
C        2.23129690        0.40697236        7.58491390
C        3.20175940        1.34196790        8.48433870
C        3.97336490        9.27866270        7.63685030
C        4.88565120       10.21320800        8.42784470
C        3.98855910        0.37852256        5.79163440
C        4.86278290        1.37197440        6.70062850
C        2.28765340        2.28516130        9.28120720
C        3.17746470        3.10322140       10.18316900
C        2.23787340        3.95551300        0.41576341
C        3.03492470        4.86790690        1.32041510
C        4.01101750        2.15853250        0.41259187
C        4.86800950        3.15878690        1.38532900
C        3.94740820        4.03741600        9.27025780
C        4.92676840        4.86996380       10.18847400
C        2.15547060        2.22013100        2.14799820
C        3.09090050        3.12112990        3.05946130
C        2.13331360        3.93954420        3.97812350
C        3.10371270        4.88435800        4.82728410
C        3.98795990        2.21804760        4.01716360
C        4.84801160        3.11047700        4.94116510
C        3.95019730        4.00594970        2.22950770
C        4.86992980        4.82498490        3.10355400
C        2.21039160        2.25959020        5.71379240
C        3.15548880        3.14439420        6.72420720
C        2.23733360        3.98814890        7.55398820
C        3.11223330        4.85214150        8.51636830
C        4.02453230        2.19369010        7.58863980
C        4.90821000        3.14419490        8.38222330
C        4.00244450        4.01825650        5.84357870
C        4.85728670        4.86339620        6.65458730
C        2.26059710        5.70719180        9.27972060
C        3.16490120        6.65757460       10.14957100
C        2.28172820        7.51415540        0.46426059
C        3.10259480        8.40341520        1.34372650
C        4.01574710        5.81751410        0.43658643
C        4.81449060        6.74409070        1.30563240
C        4.02710550        7.47937580        9.35282020
C        4.85207790        8.45564890       10.29934800
C        2.20402640        5.73288190        2.23480420
C        3.07728820        6.66517990        3.02477700
C        2.19206540        7.46791190        4.01885820
C        3.05550200        8.51318650        4.91118420
C        3.95173710        5.73041980        3.92904790
C        4.87080490        6.65108720        4.93083600
C        3.96354060        7.56658100        2.27127670
C        4.87800440        8.37477930        3.13937600
C        2.19063390        5.79628080        5.70109760
C        3.11139110        6.62395240        6.61490210
C        2.23473720        7.51848030        7.51357330
C        3.18214600        8.42375980        8.50282690
C        3.97080890        5.78425490        7.54918700
C        4.93825940        6.59492420        8.45008010
C        3.92723990        7.53528180        5.69786510
C        4.86308060        8.39858360        6.68205020
C        5.71655990        9.34490620        9.31121770
C        6.68626130       10.17297600       10.23326400
C        5.77603010        0.40049068        0.43749736
C        6.65060910        1.29396440        1.32764530
C        7.51823250        9.29677540        0.39014523
C        8.43141000       10.29543800        1.30576470
C        7.53837160        0.47905347        9.33294370
C        8.42018280        1.29615700       10.20971600
C        5.76595570        9.31534770        2.20881780
C        6.67500320       10.23776600        3.13327360
C        5.73783400        0.41094032        3.95305900
C        6.64694530        1.33814560        4.92915910
C        7.62037330        9.29948580        3.93211540
C        8.42367860       10.17584500        4.90021440
C        7.47293540        0.43105565        2.21042120
C        8.37260620        1.32685450        3.06920200
C        5.74241270        9.25389110        5.77699010
C        6.75191990       10.12541000        6.59703000
C        5.80892420        0.45864056        7.52995850
C        6.63215050        1.38183860        8.39062010
C        7.52534750        9.31994360        7.59093430
C        8.40472570       10.21774100        8.42565180
C        7.54443370        0.43403390        5.74842180
C        8.35756780        1.37969680        6.66984030
C        5.79895120        2.19984780        9.36435390
C        6.63405160        3.09303510       10.25342300
C        5.80892910        4.02741660        0.44932836
C        6.66751100        4.89083330        1.38186320
C        7.51645180        2.23133980        0.51205776
C        8.38385350        3.09005650        1.34188530
C        7.60102010        3.91739160        9.35216620
C        8.45211750        4.76263590       10.19065700
C        5.75582520        2.22792900        2.24124340
C        6.66533010        3.14385740        3.07878590
C        7.50323720        2.24335390        3.99052100
C        8.34899180        3.14743780        4.89648100
C        7.56242890        3.98439790        2.27360820
C        8.49523910        4.88502900        3.10018830
C        5.67564050        2.23484440        5.75786790
C        6.65493550        3.07595010        6.73307150
C        5.73128700        3.97759480        7.59580970
C        6.70433540        4.88163600        8.41903080
C        7.52902710        2.25225790        7.53945400
C        8.44230290        3.14118350        8.39224560
C        7.57767260        3.93357570        5.86804580
C        8.43916620        4.90460410        6.65547450
C        5.81941420        5.75925210        9.25666690
C        6.68401890        6.68817100       10.14321400
C        5.72356690        7.54625850        0.45865604
C        6.64982100        8.53023100        1.26315760
C        7.65201370        5.76896620        0.37268333
C        8.42326160        6.62910290        1.26010620
C        7.58631660        7.59817970        9.32772650
C        8.50872320        8.46205670       10.17335200
C        5.72071620        5.77151120        2.23508530
C        6.62649060        6.65600460        3.07237650
C        5.76303620        7.52793030        4.04110860
C        6.67704350        8.41096650        4.84072420
C        7.63260540        5.80893570        3.87566350
C        8.44187280        6.64326490        4.85294440
C        7.49700070        7.53516620        2.16523490
C        8.49280890        8.43569990        2.97998220
C        5.69378700        5.88049070        5.78469570
C        6.58496650        6.68932210        6.60779450
C        5.77028590        7.55601420        7.59652960
C        6.60236160        8.49038370        8.47763870
C        7.53125720        5.76577890        7.52602340
C        8.49665170        6.60158740        8.41323460
C        7.50090040        7.55269770        5.75148040
C        8.41826850        8.44750970        6.73571930
N        5.67535780        4.01373740        3.88896440
