&CONTROL
calculation = 'scf'
restart_mode = 'from_scratch'
verbosity = 'high'
wf_collect = .true.
pseudo_dir='/home/arpank/pseudopotentials/'
tprnfor = .true.
/
&SYSTEM
ibrav = 0
ecutwfc = 60
tot_charge = -1
nspin = 2
tot_magnetization = 2.0
nbnd = 480
nat = 215
ntyp = 2
input_dft = 'PBE0'
exx_fraction = 0.18
ecutfock = 120
/
&ELECTRONS
conv_thr = 1D-8
diago_full_acc=.true.
mixing_beta = 0.3
/
&IONS
ion_dynamics='bfgs'
ion_positions='default'
/
K_POINTS gamma
ATOMIC_SPECIES
C  12.01099968  C_ONCV_PBE-1.0.upf
N  14.00699997  N_ONCV_PBE-1.0.upf
CELL_PARAMETERS angstrom
    10.65000000      0.00000000      0.00000000
     0.00000000     10.65000000      0.00000000
     0.00000000      0.00000000     10.65000000
ATOMIC_POSITIONS angstrom
C        9.33720220        9.33454530        9.32342020
C       10.28421600       10.24539700       10.20582800
C        9.31260260        0.50945409        0.44116576
C       10.10288900        1.33729600        1.32897930
C        0.38653373        9.28215130        0.46586850
C        1.36307070       10.22818700        1.36352350
C        0.45956652        0.51658434        9.34166810
C        1.29063620        1.30311160       10.18353400
C        9.24780960        9.31492190        2.24439190
C       10.19474300       10.14981700        3.07241120
C        9.31931430        0.49903780        3.93873970
C       10.17079900        1.33944320        4.85346420
C        0.40423140        9.35074380        3.93902500
C        1.34048710       10.20368700        4.91372060
C        0.41383128        0.43995054        2.25267140
C        1.28142380        1.28004040        3.15078970
C        9.29109800        9.29512730        5.77686090
C       10.23252400       10.15798200        6.65551120
C        9.33045330        0.42053628        7.46969500
C       10.16841500        1.31972710        8.36209070
C        0.49320976        9.28197150        7.54193980
C        1.30734320       10.20602300        8.45269330
C        0.41823729        0.39939658        5.80656880
C        1.34450420        1.41018820        6.63810910
C        9.33098110        2.24956360        9.23082110
C       10.24659100        3.05577600       10.16819600
C        9.31420150        3.96291370        0.47128685
C       10.20932100        4.83983860        1.39220650
C        0.43122858        2.21995780        0.46306517
C        1.32169110        3.12569810        1.30938500
C        0.50662840        3.96879850        9.34922000
C        1.28191760        4.88979690       10.24385600
C        9.25893690        2.22798060        2.24929710
C       10.19609200        3.08089220        3.12957020
C        9.37838200        4.01366810        3.98161360
C       10.21316200        4.83955190        4.83075970
C        0.40385753        2.24785570        4.02050410
C        1.34437400        3.15305590        4.81685300
C        0.50667124        3.97379320        2.32456660
C        1.37913560        4.90226530        3.06834070
C        9.34966140        2.27164160        5.77761600
C       10.20488000        3.18151630        6.69756930
C        9.28906290        4.01406410        7.56721370
C       10.18560700        4.88590870        8.40904380
C        0.45574546        2.20837360        7.57206120
C        1.34483730        3.07181980        8.43437540
C        0.51030347        4.01630020        5.77978880
C        1.37554210        4.93063160        6.63237950
C        9.39298140        5.83665670        9.31574090
C       10.21759500        6.59925530       10.26417300
C        9.33955990        7.53929060        0.41913549
C       10.13931000        8.38060080        1.40840930
C        0.46259361        5.75893700        0.47618954
C        1.35814660        6.80478930        1.32085570
C        0.43203318        7.50173530        9.38883460
C        1.30748190        8.43212480       10.23656900
C        9.30613260        5.81813330        2.21417690
C       10.20552200        6.64958330        3.16663690
C        9.42844170        7.54358570        4.03045110
C       10.25475200        8.41200480        4.86652650
C        0.49238711        5.72252640        4.00080110
C        1.51509180        6.65902440        4.87563590
C        0.43061549        7.60511830        2.29381710
C        1.32019720        8.40987900        3.16464680
C        9.28633030        5.76352150        5.78927280
C       10.15917000        6.60549920        6.69954270
C        9.36130120        7.52067930        7.54800860
C       10.24827500        8.43270580        8.43960480
C        0.40978697        5.76162140        7.58095310
C        1.29254290        6.60874420        8.43406030
C        0.45851091        7.52021150        5.80173210
C        1.38293330        8.40770590        6.66486130
C        2.19913500        9.29713280        9.28459370
C        3.08825410       10.18389500       10.20298900
C        2.22218310        0.41155612        0.43215699
C        3.07986200        1.29003880        1.37160760
C        4.06186380        9.34751220        0.50014985
C        4.93937880       10.19717000        1.29347050
C        4.00227840        0.42812340        9.28821830
C        4.84728880        1.26212270       10.18234700
C        2.16627980        9.28181510        2.18064120
C        3.06288530       10.15491200        3.12051820
C        2.21447890        0.41381720        3.99863490
C        3.11294880        1.34550800        4.86390680
C        4.03211440        9.34734410        4.03970730
C        4.81680060       10.22448200        4.89119740
C        3.99590170        0.44550228        2.28439420
C        4.86008400        1.28757180        3.14972990
C        2.23992680        9.36565320        5.76165990
C        3.11118250       10.25679400        6.60096080
C        2.20188550        0.49661087        7.58367250
C        3.04804310        1.32158020        8.47680490
C        3.94533180        9.31568740        7.59758160
C        4.87339710       10.19800900        8.33585510
C        3.92997860        0.46675254        5.73116670
C        4.86375810        1.35390480        6.62803170
C        2.24862940        2.10870280        9.29940120
C        3.05288990        3.08648610       10.19154900
C        2.16025350        3.96567520        0.50186763
C        3.06760290        4.90507610        1.33746260
C        3.93886380        2.25773560        0.45260125
C        4.79465350        3.05971120        1.40269930
C        3.90893420        3.95229330        9.35878640
C        4.85339800        4.88429780       10.23724700
C        2.18585420        2.25659700        2.23424820
C        3.11020960        3.11139190        3.07628690
C        2.22794340        4.00931460        3.94216250
C        3.18341340        4.86364360        4.83377000
C        3.99204740        2.16153120        4.02555390
C        4.86615670        3.03846650        4.88556880
C        3.95160300        4.00931260        2.17104110
C        4.82567690        4.89987950        3.17673160
C        2.25651040        2.25426170        5.70797330
C        3.14774930        3.14173680        6.62840760
C        2.13262400        4.00884560        7.56133240
C        3.02269610        4.82798520        8.41344660
C        4.00511970        2.25444010        7.55775470
C        4.84323120        3.11539800        8.46707850
C        4.00090890        3.96851840        5.77730470
C        4.91783010        4.90307660        6.59242640
C        2.14629130        5.76956540        9.34632080
C        3.10504050        6.69950870       10.17080700
C        2.19580080        7.56110270        0.44130156
C        3.12942490        8.44068220        1.24816450
C        3.96092870        5.76096000        0.42930832
C        4.90211950        6.63593330        1.33738190
C        3.98010930        7.47377770        9.27037480
C        4.82877730        8.34031860       10.14763700
C        2.21337800        5.82303020        2.25887600
C        3.16417780        6.63184950        3.04141400
C        2.25009960        7.51611300        3.95946560
C        3.16176130        8.42902140        4.82511120
C        4.09059870        5.75471140        3.95143710
C        4.90124730        6.64266260        4.86639240
C        4.02100960        7.56866600        2.14875390
C        4.96576350        8.43551030        3.07182540
C        2.35388460        5.74283010        5.75575300
C        3.17723460        6.68538030        6.68118380
C        2.24116110        7.48726780        7.52285410
C        3.05777390        8.45165050        8.43773460
C        4.01954670        5.74229000        7.58652950
C        4.91574410        6.65218370        8.42897500
C        4.05380970        7.52140930        5.84146130
C        5.00067580        8.51099250        6.65306030
C        5.67446070        9.22015770        9.27851900
C        6.66927110       10.22854500       10.15254400
C        5.77017390        0.45101131        0.48805265
C        6.66442890        1.30296380        1.33932970
C        7.61170450        9.28348330        0.44900596
C        8.46709590       10.26225800        1.34760580
C        7.45904390        0.36740831        9.33588570
C        8.42144850        1.33660240       10.24621200
C        5.82916180        9.33404690        2.14337290
C        6.66928500       10.18425500        3.10440180
C        5.84469430        0.44514819        3.99413510
C        6.67250060        1.33329920        4.86959100
C        7.61977900        9.25211860        4.01241810
C        8.47348950       10.22039000        4.89146730
C        7.59564370        0.41245810        2.27472990
C        8.36515890        1.26736450        3.13065610
C        5.76912420        9.38441310        5.76917310
C        6.58958980       10.23569800        6.69544490
C        5.65385720        0.41487419        7.48537990
C        6.66822630        1.32628070        8.41284940
C        7.56568480        9.30178950        7.48695620
C        8.46054380       10.22043100        8.47882940
C        7.55403010        0.45258530        5.72511970
C        8.39045780        1.34564840        6.67681180
C        5.68328150        2.19376780        9.27731760
C        6.65111930        3.11768770       10.17964300
C        5.78542700        4.01024770        0.49394582
C        6.71958640        4.92794260        1.31715590
C        7.51195710        2.23356650        0.41680407
C        8.41706590        3.12281710        1.42739600
C        7.51305480        4.03735190        9.28988770
C        8.40127430        4.92321660       10.19722600
C        5.70908090        2.19246850        2.23239670
C        6.60907520        3.16266850        3.09374570
C        7.44103530        2.27103090        3.97257510
C        8.42422580        3.16536760        4.83271120
C        7.54035380        4.00552090        2.20566280
C        8.39863420        4.93831820        3.09234280
C        5.81866250        2.25163480        5.68626340
C        6.70628270        3.07852730        6.65269310
C        5.80040300        3.98614070        7.55538230
C        6.64375630        4.87846610        8.38107760
C        7.46933910        2.29715360        7.47982960
C        8.39518530        3.11823150        8.40389810
C        7.55417520        3.94871500        5.78434250
C        8.39957380        4.76302470        6.70838280
C        5.81701270        5.67307420        9.31149260
C        6.64765010        6.71173500       10.27924600
C        5.74863340        7.60193900        0.45720982
C        6.69613320        8.46028360        1.35440810
C        7.56556410        5.75754710        0.40097991
C        8.40146410        6.68171290        1.34673680
C        7.53458730        7.55737610        9.33703020
C        8.44209930        8.41004970       10.16951400
C        5.84044980        5.80715900        2.17822360
C        6.64930920        6.67737650        3.07067150
C        5.75099880        7.60650650        3.96349330
C        6.67805720        8.45226930        4.89407960
C        7.67219450        5.85389910        3.98110350
C        8.41921260        6.66169430        4.88698200
C        7.57104010        7.54158400        2.26205000
C        8.40815750        8.46519500        3.09084050
C        5.73149290        5.84396300        5.81471630
C        6.62350460        6.62251050        6.65762820
C        5.78593340        7.52607040        7.54218330
C        6.62431010        8.41054870        8.38937760
C        7.53802350        5.77339250        7.58974070
C        8.47072370        6.72033360        8.49927900
C        7.57786490        7.52069990        5.74434080
C        8.44253740        8.41080640        6.63321870
N        5.67376140        3.89825150        3.89790250
