&CONTROL
calculation = 'scf'
restart_mode = 'from_scratch'
verbosity = 'high'
wf_collect = .true.
pseudo_dir='/home/arpank/pseudopotentials/'
tprnfor = .true.
/
&SYSTEM
ibrav = 0
ecutwfc = 60
tot_charge = -1
nspin = 2
tot_magnetization = 2.0
nbnd = 480
nat = 215
ntyp = 2
input_dft = 'PBE0'
exx_fraction = 0.18
ecutfock = 120
/
&ELECTRONS
conv_thr = 1D-8
diago_full_acc=.true.
mixing_beta = 0.3
/
&IONS
ion_dynamics='bfgs'
ion_positions='default'
/
K_POINTS gamma
ATOMIC_SPECIES
C  12.01099968  C_ONCV_PBE-1.0.upf
N  14.00699997  N_ONCV_PBE-1.0.upf
CELL_PARAMETERS angstrom
    10.65000000      0.00000000      0.00000000
     0.00000000     10.65000000      0.00000000
     0.00000000      0.00000000     10.65000000
ATOMIC_POSITIONS angstrom
C        9.24602220        9.30310270        9.33524800
C       10.16738800       10.20474800       10.20508100
C        9.32076390        0.41722240        0.44919564
C       10.18961300        1.35430700        1.35311000
C        0.44162392        9.37628110        0.38772530
C        1.35098040       10.19406300        1.30308460
C        0.40617936        0.41521781        9.30168690
C        1.22851640        1.34655680       10.20014000
C        9.27709940        9.35030600        2.22318990
C       10.20928800       10.25796600        3.14410680
C        9.28494520        0.41847332        4.01947100
C       10.18132900        1.27688420        5.00947530
C        0.41612219        9.39979130        3.98120080
C        1.31793120       10.20346400        4.95565970
C        0.43895173        0.48404961        2.18775150
C        1.30889010        1.33070070        3.09980450
C        9.37997180        9.33336210        5.78229220
C       10.24667300       10.21738000        6.65718890
C        9.35950290        0.47681719        7.51342050
C       10.17851900        1.30759360        8.41991890
C        0.39841470        9.35751010        7.60504250
C        1.34349360       10.23687900        8.41604270
C        0.47962292        0.40039574        5.75892660
C        1.32699680        1.31101160        6.64911280
C        9.37027470        2.19113080        9.27242100
C       10.13195600        3.15632620       10.18527400
C        9.26795410        3.99953100        0.42241857
C       10.20384400        4.85035090        1.36709670
C        0.46187512        2.25400770        0.49621531
C        1.34617500        3.10183790        1.32508040
C        0.43022657        4.00284950        9.32387490
C        1.35038650        4.87560740       10.21426100
C        9.32253980        2.18323260        2.24464570
C       10.15519700        3.03344430        3.11527210
C        9.33614970        4.06807430        3.93066460
C       10.18826500        4.85441220        4.85606880
C        0.39449555        2.20937700        4.02668850
C        1.33694400        3.11835600        4.93654160
C        0.43818826        3.99760340        2.21821630
C        1.35451130        4.81682420        3.09462750
C        9.36509650        2.22631260        5.73705190
C       10.24076800        3.10327000        6.64402260
C        9.33008920        3.98679560        7.51296840
C       10.24998700        4.85936080        8.43354480
C        0.43412018        2.25932440        7.52129710
C        1.28597310        3.07607750        8.45060010
C        0.41509844        3.97352260        5.72868810
C        1.33230310        4.88951310        6.62812790
C        9.29269760        5.76852200        9.36932930
C       10.21807800        6.65121830       10.26336400
C        9.25048520        7.62038690        0.42554828
C       10.16388500        8.44559940        1.31996500
C        0.37102092        5.70797080        0.48871200
C        1.28540570        6.61409480        1.33452820
C        0.51755300        7.49165380        9.35516160
C        1.33391400        8.44759580       10.19585700
C        9.28589840        5.77873030        2.19192480
C       10.17416400        6.73666350        3.08798790
C        9.43923730        7.66301600        3.98163510
C       10.26060300        8.42092040        4.85823800
C        0.42815135        5.75352390        3.98816430
C        1.29728380        6.64100190        4.90305180
C        0.34150541        7.52552620        2.23093460
C        1.34231230        8.46836980        3.13312350
C        9.36742100        5.80628990        5.82781210
C       10.16528000        6.66952340        6.71168470
C        9.33343050        7.53706090        7.60122440
C       10.22565700        8.33579080        8.45332840
C        0.46823107        5.78071910        7.55305060
C        1.32574080        6.58846560        8.54898000
C        0.38568179        7.52528190        5.86445040
C        1.27662760        8.39670530        6.60287980
C        2.27157050        9.33363690        9.30587260
C        3.06003770       10.19941600       10.17380100
C        2.23683970        0.42009969        0.41584439
C        3.14802070        1.31135980        1.30602600
C        4.03069260        9.29101330        0.52536248
C        4.80358040       10.19799100        1.30672270
C        3.96757740        0.44939753        9.29000560
C        4.86617900        1.41578530       10.11260900
C        2.22364490        9.31078130        2.22329090
C        3.10862740       10.25147900        3.09485910
C        2.21206540        0.42955864        4.00442510
C        3.08822690        1.26341590        4.91624290
C        4.04457960        9.29761530        4.00875120
C        4.84446930       10.26090800        4.83291110
C        4.04326520        0.48690726        2.16280970
C        4.95950820        1.30355070        3.09940440
C        2.19625700        9.28530430        5.80652800
C        3.13337470       10.22958600        6.69298470
C        2.17809130        0.39870857        7.50651750
C        3.04096690        1.32546470        8.42569580
C        3.95709400        9.28022910        7.49983200
C        4.87612690       10.17381400        8.36334970
C        3.94772500        0.43308835        5.80347530
C        4.85999450        1.34136140        6.57478610
C        2.22743480        2.21544520        9.30521590
C        3.13467630        3.10133810       10.22370800
C        2.24394240        4.02126270        0.44592079
C        3.13919800        4.88209850        1.25862350
C        3.99998740        2.20336060        0.39186422
C        4.91071390        3.07959020        1.32303350
C        4.02877190        3.95626530        9.29601380
C        4.87622530        4.84553010       10.18335500
C        2.21876510        2.22046680        2.22133610
C        3.08089140        3.11420980        3.08139250
C        2.21767420        3.90724610        3.98399390
C        3.14793390        4.89442990        4.95430540
C        4.02245210        2.11753120        4.01548280
C        4.83482340        3.11026870        4.87890060
C        3.99639410        3.98298180        2.25241620
C        4.94065110        4.86236930        3.16196230
C        2.20714520        2.20702980        5.84467730
C        3.14002170        3.09212890        6.60550940
C        2.22937940        4.01919050        7.51879610
C        3.11898760        4.82507330        8.38429780
C        4.03269120        2.21055940        7.44149010
C        4.89369020        3.08623470        8.35579760
C        4.00860360        4.00808630        5.76637160
C        4.91326570        4.84947130        6.62969480
C        2.21465410        5.73527000        9.40460050
C        3.16574650        6.67750700       10.20020200
C        2.17922170        7.51485740        0.46504742
C        3.12018510        8.42990070        1.37531180
C        3.95074350        5.79743590        0.49733235
C        4.89198350        6.61158160        1.32230290
C        3.96866710        7.58966880        9.30216980
C        4.92654830        8.38812610       10.18393500
C        2.20960270        5.76549720        2.21119390
C        3.15668040        6.62124880        3.17285320
C        2.24982650        7.59207190        4.02522290
C        3.09861490        8.46047520        4.87247650
C        4.00261310        5.73314880        4.00501360
C        4.95669670        6.60837070        4.83505380
C        3.98368370        7.47684310        2.24899560
C        4.87844590        8.35517440        3.07707410
C        2.24052560        5.73084380        5.69643630
C        3.11664290        6.61175510        6.74005720
C        2.16559930        7.55277470        7.56205050
C        3.12805960        8.39259780        8.38804400
C        4.02271930        5.72870810        7.49039630
C        4.95030800        6.62496120        8.37118750
C        3.92189430        7.52275070        5.76765330
C        4.87461370        8.42320700        6.59373760
C        5.73409180        9.29452090        9.28031570
C        6.59274880       10.27708000       10.22462200
C        5.71480900        0.49311828        0.38310803
C        6.68241950        1.29548460        1.28215670
C        7.56545560        9.31715920        0.42677597
C        8.43929960       10.29919500        1.42040710
C        7.58874000        0.48409562        9.33853860
C        8.47893750        1.40260190       10.28419100
C        5.75827460        9.25819570        2.18472490
C        6.71493180       10.23482700        3.08946430
C        5.86486530        0.48699870        4.00242310
C        6.68434810        1.30124320        4.87750750
C        7.54686340        9.26154740        3.96532510
C        8.32639480       10.25672400        4.89005170
C        7.54359530        0.39335067        2.21822160
C        8.39268730        1.45268190        3.12695200
C        5.73503820        9.34297110        5.75413950
C        6.63131440       10.19922900        6.65076220
C        5.75200660        0.50134168        7.58969230
C        6.59101380        1.28889960        8.44921090
C        7.46908320        9.26235770        7.47955460
C        8.35434030       10.19957800        8.36126670
C        7.44348840        0.51854955        5.72375460
C        8.36052920        1.46359470        6.59499670
C        5.70680140        2.23176100        9.31691760
C        6.72032650        3.04272070       10.18812900
C        5.78329850        3.98140780        0.41936808
C        6.66986410        4.93634030        1.37150520
C        7.56803960        2.22738030        0.43200938
C        8.36743540        3.15105630        1.33808350
C        7.50530000        3.96020760        9.35645940
C        8.41927880        4.85074950       10.23159400
C        5.79383280        2.20521710        2.16873670
C        6.62483930        3.07702530        3.15500560
C        7.53611500        2.25917120        4.03060780
C        8.43706670        3.10505440        4.79769640
C        7.53676040        3.99812900        2.20072170
C        8.40055670        4.93643870        3.15114390
C        5.75634580        2.23801570        5.74487900
C        6.71988460        3.15258640        6.64832250
C        5.73501490        3.98182180        7.56348710
C        6.67850610        4.87698200        8.41271870
C        7.55252190        2.27496900        7.54635580
C        8.45241910        3.13217560        8.39167940
C        7.68052950        4.02018830        5.86526690
C        8.43261540        4.85859100        6.65335250
C        5.84984640        5.72717590        9.30152380
C        6.62578280        6.64124500       10.20049300
C        5.78825820        7.50297700        0.41644265
C        6.66614810        8.43650350        1.23325140
C        7.59869900        5.84647070        0.48608163
C        8.37683010        6.75858690        1.30269210
C        7.50912610        7.60599770        9.35425330
C        8.41341170        8.42015290       10.16438100
C        5.86585520        5.72407340        2.26218300
C        6.68188500        6.69156470        3.21679190
C        5.80525150        7.52762520        4.05375000
C        6.65827790        8.41865190        4.87488260
C        7.59729920        5.83533410        4.07140250
C        8.48192900        6.71660700        4.82392410
C        7.54640930        7.66155930        2.21772400
C        8.47124780        8.52889550        3.06903410
C        5.69882710        5.82352110        5.83500970
C        6.73659030        6.61280570        6.66471170
C        5.84051150        7.53485020        7.57814870
C        6.66675770        8.43993960        8.41716990
C        7.57584120        5.70835750        7.59413830
C        8.49645920        6.63474910        8.47205740
C        7.63184590        7.54044730        5.78809850
C        8.41723890        8.39141690        6.61381560
N        5.67273930        3.91961490        3.99066200
