&CONTROL
calculation = 'scf'
restart_mode = 'from_scratch'
verbosity = 'high'
wf_collect = .true.
pseudo_dir='/home/arpank/pseudopotentials/'
tprnfor = .true.
/
&SYSTEM
ibrav = 0
ecutwfc = 60
tot_charge = -1
nspin = 2
tot_magnetization = 2.0
nbnd = 480
nat = 215
ntyp = 2
input_dft = 'PBE0'
exx_fraction = 0.18
ecutfock = 120
/
&ELECTRONS
conv_thr = 1D-8
diago_full_acc=.true.
mixing_beta = 0.3
/
&IONS
ion_dynamics='bfgs'
ion_positions='default'
/
K_POINTS gamma
ATOMIC_SPECIES
C  12.01099968  C_ONCV_PBE-1.0.upf
N  14.00699997  N_ONCV_PBE-1.0.upf
CELL_PARAMETERS angstrom
    10.65000000      0.00000000      0.00000000
     0.00000000     10.65000000      0.00000000
     0.00000000      0.00000000     10.65000000
ATOMIC_POSITIONS angstrom
C        9.31394750        9.31175480        9.34022470
C       10.16044300       10.21508500       10.21346000
C        9.33234690        0.45868670        0.49924068
C       10.23126000        1.34560440        1.29076540
C        0.44697100        9.36680240        0.48254555
C        1.32459820       10.21876100        1.33295730
C        0.52570136        0.44182723        9.38295190
C        1.35301870        1.33351530       10.24567000
C        9.28900640        9.33089260        2.20615080
C       10.18496000       10.28946600        3.12631070
C        9.32023210        0.44635685        4.03532490
C       10.16412900        1.36768880        4.91992700
C        0.37316163        9.26784680        3.99380600
C        1.32497510       10.25224500        4.89143330
C        0.42082125        0.43762184        2.26993970
C        1.33681980        1.28403400        3.08705400
C        9.38176770        9.35253610        5.70648940
C       10.18851200       10.15968600        6.63340350
C        9.29912330        0.39202922        7.58046370
C       10.20036600        1.32539130        8.45348830
C        0.45794499        9.27996670        7.61207240
C        1.34841290       10.29266100        8.47281090
C        0.36897629        0.49544888        5.77387900
C        1.31916270        1.35205410        6.68209340
C        9.28724940        2.21238630        9.40692300
C       10.22334400        3.15764400       10.17405100
C        9.28494050        4.04524350        0.42716470
C       10.16751800        4.85103110        1.35876670
C        0.45882249        2.27228340        0.44852819
C        1.34695520        3.03672140        1.33863540
C        0.45268733        4.02062370        9.30523290
C        1.28551620        4.90586370       10.27612900
C        9.23046370        2.23529110        2.29651700
C       10.22162500        3.14430530        3.11036200
C        9.25416760        3.99044180        4.01916480
C       10.21218600        4.86664320        4.79873480
C        0.46612100        2.18758420        4.01476410
C        1.36256490        3.09899230        4.83798250
C        0.44618350        3.98341850        2.23803020
C        1.32630290        4.83083460        3.10685100
C        9.28799260        2.19451740        5.73419320
C       10.15293900        2.96874890        6.68594710
C        9.29376140        4.00095690        7.56509850
C       10.27206900        4.91180530        8.43954420
C        0.40470593        2.22942820        7.51996720
C        1.36935940        3.13745390        8.50200050
C        0.40072078        3.92857370        5.81447120
C        1.30378360        4.85748770        6.63478830
C        9.35021110        5.81520940        9.29751700
C       10.15551200        6.69903320       10.22830300
C        9.30763560        7.56598670        0.52998457
C       10.17785500        8.47131410        1.34301900
C        0.36467216        5.78521860        0.48414003
C        1.34212470        6.67764460        1.35101680
C        0.40416064        7.53424780        9.37965780
C        1.31395110        8.41336160       10.18510100
C        9.25610040        5.73142740        2.22815180
C       10.17433600        6.64185500        3.03589530
C        9.33256010        7.53435690        3.93166840
C       10.20999300        8.44527040        4.86338580
C        0.43511703        5.74064170        3.95828590
C        1.39306430        6.66734670        4.90027430
C        0.41500730        7.52969770        2.18322190
C        1.28957030        8.40007720        3.10461860
C        9.31792100        5.77751930        5.75723600
C       10.25098100        6.71741080        6.67898860
C        9.32818700        7.58307720        7.53928240
C       10.26163700        8.35907300        8.48345080
C        0.43509168        5.76864660        7.50533500
C        1.28170310        6.65450860        8.36754140
C        0.54680704        7.57093890        5.73679880
C        1.39798270        8.39146920        6.69252300
C        2.20062680        9.34920790        9.34083030
C        3.11132830       10.21994800       10.19071300
C        2.18418460        0.51302428        0.46271852
C        3.06153530        1.34304140        1.36418980
C        3.93390160        9.29701720        0.42751394
C        4.87024290       10.19142000        1.35497960
C        3.98971000        0.46835154        9.30903420
C        4.88723340        1.26730670       10.24738900
C        2.20948870        9.30126670        2.21777620
C        3.14201870       10.13956200        3.13837480
C        2.19626400        0.37388009        3.94703650
C        3.02710200        1.28759650        4.83292310
C        4.01691350        9.31452870        4.05903570
C        4.83660210       10.27129300        4.92775540
C        3.93329760        0.47829609        2.17062570
C        4.80817060        1.30542730        3.16744600
C        2.26917890        9.34856750        5.73055040
C        3.19766110       10.26871200        6.65450180
C        2.14554330        0.50806088        7.61043830
C        3.09155350        1.38543650        8.42177140
C        4.03069490        9.31440510        7.52822970
C        4.91319460       10.18287500        8.44187300
C        3.94172620        0.39111924        5.75003950
C        4.92092670        1.30011020        6.55705670
C        2.22218690        2.20583090        9.39174940
C        3.13603920        3.08925880       10.16723600
C        2.27161510        4.05174120        0.51603569
C        3.09777590        4.83337800        1.39497560
C        3.98212100        2.22957840        0.40564814
C        4.85711290        3.06234910        1.25999580
C        4.03726830        3.96599250        9.25148670
C        4.88742560        4.91419860       10.10454300
C        2.23852100        2.24869040        2.23292750
C        3.10253390        3.18921720        3.10530690
C        2.29200740        4.01335360        4.04565990
C        3.11603940        4.87116460        4.88861230
C        4.04708110        2.12865940        4.06211420
C        4.89671370        3.11401160        4.83497580
C        3.93130930        3.94971970        2.21331190
C        4.89524990        4.89299520        3.07131350
C        2.24536160        2.17991230        5.74700600
C        3.09467830        3.16094860        6.64428600
C        2.23973960        3.97955400        7.54643220
C        3.07633020        4.83429190        8.50024710
C        4.03919790        2.21300030        7.53314050
C        4.93127720        3.12002640        8.37993190
C        4.04224220        3.96778300        5.66512660
C        4.96620020        4.85888720        6.64281400
C        2.13371510        5.78858670        9.40230020
C        3.04993840        6.63721120       10.17605800
C        2.24370810        7.52629640        0.47597097
C        3.11277960        8.41949900        1.37772440
C        3.99564200        5.74673230        0.39877500
C        4.93559840        6.62815370        1.31813960
C        4.00588560        7.51215440        9.34253700
C        4.82083790        8.43673760       10.20055000
C        2.21099040        5.77378650        2.27854520
C        3.12059350        6.63379920        3.17021990
C        2.24225510        7.56583260        4.04103740
C        3.18882470        8.47733330        4.89575820
C        4.03609110        5.75703280        4.05586690
C        4.88075500        6.63307910        4.87322160
C        3.97377300        7.49944860        2.25246280
C        4.82837100        8.44383910        3.09878530
C        2.24256180        5.64759850        5.75359940
C        3.08594680        6.65110430        6.66076750
C        2.26074140        7.53242450        7.59952350
C        3.07717030        8.43637790        8.40643920
C        3.99636140        5.74320820        7.59987920
C        4.89109670        6.58027210        8.35743760
C        4.06278360        7.55749980        5.72600130
C        4.92729180        8.35877120        6.61208620
C        5.73311410        9.30336220        9.32463570
C        6.70416940       10.19388500       10.18523800
C        5.74618420        0.34135210        0.40709450
C        6.58522170        1.35974290        1.30730140
C        7.60714590        9.38300700        0.49028470
C        8.47671200       10.23707700        1.32150290
C        7.51983380        0.42563710        9.22095350
C        8.45679810        1.27701670       10.23504600
C        5.78652970        9.32165240        2.23527510
C        6.61533460       10.22891400        3.10472730
C        5.71110830        0.41885720        4.00791270
C        6.71178460        1.32237000        4.86312670
C        7.48524010        9.28477090        3.93865100
C        8.46196600       10.21854500        4.79280460
C        7.47771860        0.46311788        2.17401990
C        8.34930530        1.37375790        3.16299250
C        5.83498600        9.33425450        5.76130510
C        6.68439350       10.28891300        6.59838940
C        5.78539400        0.47900570        7.48905510
C        6.65300500        1.28811730        8.45102070
C        7.58385820        9.38638050        7.53236930
C        8.43187830       10.21206700        8.44900890
C        7.53796280        0.44579133        5.71503920
C        8.43831700        1.31203680        6.68352910
C        5.78392410        2.28268330        9.32725770
C        6.67088610        3.04252210       10.17706500
C        5.88561590        3.92000700        0.43693945
C        6.67159000        4.86331040        1.31451520
C        7.58630440        2.25224800        0.42458217
C        8.43083420        3.12345700        1.37613260
C        7.57223180        3.97226160        9.27294140
C        8.40971240        4.85658460       10.26778400
C        5.70725580        2.20355810        2.17950520
C        6.63230630        3.12050140        3.09292200
C        7.49797020        2.23826550        4.03364540
C        8.43060050        3.08457410        4.85509630
C        7.48483850        3.98537910        2.23001500
C        8.35542040        4.87218250        3.18675050
C        5.83067020        2.22207430        5.67231360
C        6.73872390        3.10407250        6.62524140
C        5.82234480        4.01038650        7.51700570
C        6.77230440        4.89801360        8.43344920
C        7.54082730        2.25217240        7.52870020
C        8.46514880        3.13408390        8.39731640
C        7.57562460        4.01368550        5.79245060
C        8.47194500        4.88826680        6.61277030
C        5.80045970        5.77567890        9.36497950
C        6.59340870        6.68990450       10.19653600
C        5.67828940        7.54934830        0.38546179
C        6.62745680        8.54654460        1.27893790
C        7.59715430        5.69535800        0.42959562
C        8.35893010        6.64805840        1.40175820
C        7.55990800        7.51495040        9.29692270
C        8.44861140        8.43244010       10.20653800
C        5.81351740        5.73916640        2.18166470
C        6.65063790        6.69420130        3.15148690
C        5.71249050        7.48235550        3.97066950
C        6.67773640        8.50233450        4.91544060
C        7.55358140        5.86122370        4.03716470
C        8.47422140        6.68976190        4.89627550
C        7.45799730        7.56634210        2.15128940
C        8.39189420        8.41674560        3.09802090
C        5.76374230        5.88239610        5.80022640
C        6.74216030        6.70668390        6.66468060
C        5.72920190        7.50585290        7.49946490
C        6.71155350        8.42849690        8.35742290
C        7.56266800        5.77611040        7.53328910
C        8.49295710        6.62584910        8.34999920
C        7.49664930        7.52570820        5.81412530
C        8.43400660        8.45112010        6.65790080
N        5.68788110        3.92494250        3.89174960
