&CONTROL
calculation = 'scf'
restart_mode = 'from_scratch'
verbosity = 'high'
wf_collect = .true.
pseudo_dir='/home/arpank/pseudopotentials/'
tprnfor = .true.
/
&SYSTEM
ibrav = 0
ecutwfc = 60
tot_charge = -1
nspin = 2
tot_magnetization = 2.0
nbnd = 480
nat = 215
ntyp = 2
input_dft = 'PBE0'
exx_fraction = 0.18
ecutfock = 120
/
&ELECTRONS
conv_thr = 1D-8
diago_full_acc=.true.
mixing_beta = 0.3
/
&IONS
ion_dynamics='bfgs'
ion_positions='default'
/
K_POINTS gamma
ATOMIC_SPECIES
C  12.01099968  C_ONCV_PBE-1.0.upf
N  14.00699997  N_ONCV_PBE-1.0.upf
CELL_PARAMETERS angstrom
    10.65000000      0.00000000      0.00000000
     0.00000000     10.65000000      0.00000000
     0.00000000      0.00000000     10.65000000
ATOMIC_POSITIONS angstrom
C        9.28949200        9.28440350        9.32601170
C       10.19598900       10.13589200       10.16942700
C        9.26343940        0.38955838        0.42536623
C       10.15674100        1.37578260        1.36839160
C        0.45772675        9.32291660        0.48057221
C        1.36752770       10.14316800        1.32991430
C        0.41743621        0.49653365        9.31835000
C        1.32647350        1.31048650       10.25425300
C        9.30714200        9.29949580        2.24433970
C       10.21000000       10.11348600        3.04258190
C        9.26699450        0.40754770        3.97659750
C       10.19510100        1.29372310        4.90255030
C        0.39987330        9.27528390        3.99319760
C        1.30947130       10.29578500        4.85997530
C        0.48255727        0.48818023        2.24344730
C        1.31972130        1.34938610        3.14764810
C        9.31803770        9.25866190        5.76041060
C       10.17785600       10.22826900        6.69371900
C        9.32356090        0.45623034        7.47789010
C       10.21463400        1.28769700        8.38036400
C        0.37874490        9.34841710        7.58762490
C        1.36814400       10.20658500        8.46607760
C        0.42870312        0.45194588        5.74499020
C        1.31609570        1.37242460        6.67621910
C        9.30801560        2.19857990        9.23550140
C       10.20428000        3.14489600       10.15893300
C        9.25431540        4.01809270        0.42993135
C       10.20296800        4.88716160        1.36761350
C        0.40196468        2.20890940        0.49020866
C        1.32483040        3.05153900        1.30142630
C        0.43808979        3.95717030        9.26092910
C        1.30342430        4.85553610       10.14556700
C        9.32667330        2.23420500        2.24515140
C       10.19046100        3.05801180        3.07745290
C        9.31998490        4.04783460        3.96978030
C       10.17000800        4.85878000        4.86493460
C        0.37648522        2.22817050        3.92737170
C        1.33709160        3.18500380        4.87851820
C        0.39003920        3.98625370        2.28350330
C        1.32977980        4.90868320        3.11431500
C        9.32683280        2.18612890        5.77483390
C       10.14421200        3.16538320        6.62805060
C        9.33515310        4.04209200        7.56179820
C       10.20455300        4.78920780        8.43441900
C        0.49510449        2.30487020        7.50591700
C        1.36443920        3.07291290        8.41136610
C        0.39361605        3.99956990        5.82065200
C        1.34107710        4.90097750        6.70144890
C        9.26102410        5.73039760        9.34264230
C       10.19940700        6.64627280       10.16642600
C        9.28357960        7.48563090        0.46221069
C       10.20525900        8.37069210        1.32838370
C        0.39516581        5.75969830        0.34589307
C        1.26760680        6.61654580        1.31951630
C        0.52417977        7.52713280        9.29145170
C        1.35041050        8.39635900       10.20835800
C        9.32327390        5.76748560        2.19827750
C       10.20669600        6.69076710        3.17352070
C        9.39301460        7.57807190        4.07061160
C       10.18555500        8.44890140        4.91285020
C        0.37960357        5.77494530        4.05078900
C        1.29463370        6.70080990        4.88338540
C        0.44081730        7.57910960        2.23340980
C        1.28091960        8.39219280        3.10273890
C        9.35489930        5.83010400        5.78683370
C       10.21634600        6.71122900        6.67951480
C        9.34603070        7.61650090        7.56429340
C       10.26265400        8.46508840        8.51447140
C        0.49438822        5.72332590        7.57990360
C        1.38080930        6.65981500        8.44642160
C        0.41899017        7.58550290        5.82103610
C        1.31295130        8.43117740        6.64048200
C        2.26180650        9.37231920        9.40312550
C        3.14080040       10.18649900       10.25879100
C        2.17361110        0.40471998        0.46615438
C        3.17655560        1.28253210        1.30055870
C        4.00156780        9.31167570        0.46296371
C        4.89852100       10.17400800        1.37554890
C        3.99183010        0.44600065        9.37022480
C        4.95974450        1.36716980       10.15417600
C        2.19874430        9.29473910        2.28038080
C        3.07082720       10.15139500        3.07181480
C        2.13520450        0.43994829        4.01324640
C        3.12883550        1.34946180        4.85256390
C        4.00235340        9.33330310        4.08062950
C        4.84967840       10.23284900        4.88309820
C        3.98101060        0.45168586        2.20803920
C        4.88949210        1.28794890        3.10758070
C        2.21567490        9.31709270        5.71697920
C        3.11727030       10.22886400        6.65707030
C        2.22103870        0.43001799        7.52080880
C        3.16082470        1.31131050        8.47098040
C        4.00851790        9.32495510        7.51548160
C        4.87504180       10.19957300        8.42207630
C        4.02313070        0.44007162        5.78308270
C        4.90232530        1.33248150        6.66780870
C        2.18578940        2.28473060        9.29880230
C        3.12974180        3.10689310       10.16894700
C        2.25897070        3.99522470        0.43985257
C        3.07115040        4.90117190        1.28479300
C        3.98110200        2.16783490        0.43892391
C        4.84771900        3.10242110        1.27639690
C        4.01491610        3.97451260        9.33313690
C        4.73163380        4.87395840       10.16812100
C        2.25226800        2.17354030        2.17673820
C        2.99278310        3.06043460        3.07872830
C        2.21676580        3.92071850        4.02666940
C        3.08980570        4.88138030        4.85171180
C        3.95197520        2.22483820        4.04173400
C        4.87525200        3.10685220        4.85282260
C        3.96915380        3.99550490        2.23071320
C        4.88430450        4.79904080        3.13910130
C        2.25019390        2.28633060        5.79322210
C        3.20072210        3.12481330        6.64480990
C        2.31090610        4.03161360        7.57430760
C        3.18277190        4.91935770        8.39769390
C        4.12739590        2.23021290        7.55405090
C        4.96346620        3.07636820        8.36691470
C        3.98874460        4.09115030        5.84023010
C        4.94041120        4.83027390        6.64572940
C        2.29165970        5.73456430        9.30783290
C        3.10422260        6.69194290       10.23533800
C        2.25158660        7.62774060        0.47435872
C        3.18599200        8.40711570        1.33578630
C        3.91993750        5.70325860        0.45017867
C        4.87934660        6.56427950        1.33345670
C        3.99635080        7.51261820        9.27693260
C        4.88438530        8.39583740       10.16042600
C        2.19430120        5.82375230        2.19446840
C        3.09929590        6.62319910        3.15639210
C        2.14988270        7.52591420        4.01858200
C        3.23106290        8.47208500        4.94265590
C        3.99002260        5.75475970        4.02278520
C        4.87418470        6.65718320        4.85066160
C        3.92839410        7.50626930        2.25616900
C        4.92640820        8.50527870        3.14285430
C        2.18113620        5.92229080        5.65255250
C        3.02390540        6.68401830        6.67605630
C        2.30437690        7.65473420        7.51729860
C        3.14934230        8.46055580        8.44309190
C        4.05304740        5.82201500        7.50153430
C        4.84037120        6.71327590        8.41264830
C        3.96677810        7.57086510        5.82203530
C        4.94498230        8.44288600        6.67476150
C        5.77747230        9.28060490        9.26986820
C        6.67266830       10.12672500       10.19069000
C        5.78386090        0.43932249        0.50025156
C        6.65968310        1.35689500        1.31642490
C        7.55579740        9.27702710        0.50623732
C        8.41955100       10.22445300        1.38942300
C        7.54716290        0.41133286        9.31517560
C        8.48667760        1.28423040       10.15388200
C        5.79434090        9.34082590        2.24183380
C        6.71754780       10.26118600        3.11350460
C        5.75460070        0.41374424        4.01129370
C        6.64032780        1.35689690        4.88037210
C        7.54414090        9.29955780        4.00918460
C        8.42803270       10.15283000        4.95048020
C        7.54168240        0.45178147        2.23990390
C        8.41210200        1.26245560        3.10292920
C        5.80252930        9.31637700        5.71967490
C        6.65459570       10.25193800        6.58373400
C        5.77173890        0.42146388        7.49656190
C        6.70167690        1.30920480        8.45868250
C        7.49148880        9.32245170        7.53271230
C        8.44337880       10.15031500        8.45163070
C        7.53560760        0.45198021        5.80459350
C        8.42827700        1.35923540        6.58567860
C        5.83186750        2.15330680        9.30411300
C        6.66387460        3.12664300       10.16740200
C        5.71056980        3.90482140        0.36193991
C        6.58266190        4.83474470        1.28646310
C        7.54130100        2.21360090        0.38220276
C        8.42455830        3.14137580        1.33856520
C        7.55041560        3.97042270        9.42382560
C        8.43089190        4.88138750       10.15066400
C        5.80262950        2.21885490        2.19227610
C        6.58222160        3.13604750        3.11708430
C        7.50973660        2.24951670        4.02172020
C        8.41913880        3.12475410        4.87021750
C        7.45884220        4.01981240        2.21583620
C        8.39558780        4.90508410        3.12905800
C        5.81129880        2.29973440        5.70301910
C        6.70549630        3.19604960        6.59977670
C        5.81029900        3.96908820        7.55771210
C        6.62222660        4.89904820        8.43990100
C        7.56058330        2.24020740        7.47185540
C        8.39971960        3.13076300        8.39551410
C        7.67482940        4.00181610        5.79654070
C        8.41560580        4.88386730        6.66500460
C        5.72976670        5.76735090        9.28489620
C        6.62206200        6.64796220       10.22408200
C        5.74093060        7.53572400        0.49956379
C        6.60539810        8.46096270        1.25921110
C        7.54768640        5.79363460        0.48531253
C        8.38412330        6.67509810        1.25087130
C        7.58751130        7.51479330        9.40957610
C        8.41947520        8.42068680       10.23835500
C        5.83555670        5.74484690        2.23475660
C        6.76109760        6.64601090        3.07596200
C        5.79339950        7.51513300        3.96236790
C        6.65788960        8.43004720        4.82367350
C        7.65151350        5.85962920        3.94749930
C        8.44220570        6.70999980        4.86344570
C        7.51883320        7.59180850        2.16132250
C        8.43360610        8.39939380        3.15506010
C        5.67972020        5.85846400        5.82828380
C        6.69429710        6.53647050        6.62123930
C        5.77273490        7.48747100        7.56400600
C        6.63340140        8.31867120        8.50504950
C        7.56835810        5.77546400        7.60266090
C        8.42214960        6.65058000        8.49378970
C        7.57316860        7.56391380        5.76072810
C        8.39058540        8.46827750        6.64312170
N        5.68167860        3.94029450        3.89964020
