&CONTROL
calculation = 'scf'
restart_mode = 'from_scratch'
verbosity = 'high'
wf_collect = .true.
pseudo_dir='/home/arpank/pseudopotentials/'
tprnfor = .true.
/
&SYSTEM
ibrav = 0
ecutwfc = 60
tot_charge = -1
nspin = 2
tot_magnetization = 2.0
nbnd = 480
nat = 215
ntyp = 2
input_dft = 'PBE0'
exx_fraction = 0.18
ecutfock = 120
/
&ELECTRONS
conv_thr = 1D-8
diago_full_acc=.true.
mixing_beta = 0.3
/
&IONS
ion_dynamics='bfgs'
ion_positions='default'
/
K_POINTS gamma
ATOMIC_SPECIES
C  12.01099968  C_ONCV_PBE-1.0.upf
N  14.00699997  N_ONCV_PBE-1.0.upf
CELL_PARAMETERS angstrom
    10.65000000      0.00000000      0.00000000
     0.00000000     10.65000000      0.00000000
     0.00000000      0.00000000     10.65000000
ATOMIC_POSITIONS angstrom
C        9.34406410        9.44741370        9.35464880
C       10.24949300       10.19767200       10.30460000
C        9.28683400        0.48189026        0.42646909
C       10.24618400        1.36837760        1.31455710
C        0.43703926        9.21921130        0.47334456
C        1.36904430       10.16471300        1.30845910
C        0.47669811        0.47010430        9.37020010
C        1.25959280        1.32675820       10.24851000
C        9.32223580        9.29972870        2.19675770
C       10.15775100       10.22323600        3.12313910
C        9.33700270        0.37944948        4.04763170
C       10.24360600        1.34568840        4.87915230
C        0.42904001        9.37690400        4.05451160
C        1.35605930       10.16720500        4.91116790
C        0.50300673        0.42931033        2.16020100
C        1.32733220        1.30391950        3.12634130
C        9.27763140        9.27579020        5.75384180
C       10.20869900       10.24789000        6.60225690
C        9.34659940        0.44524141        7.52221810
C       10.20890300        1.39543410        8.43352610
C        0.43181268        9.30134710        7.56472660
C        1.37229350       10.16662100        8.55428630
C        0.46001026        0.42433975        5.84044000
C        1.37584870        1.29885570        6.65688640
C        9.29064230        2.23605890        9.32296970
C       10.12878200        3.09122180       10.19912000
C        9.25493340        3.96423640        0.46374809
C       10.21651400        4.92225260        1.36705200
C        0.42484497        2.19859950        0.37957192
C        1.30171480        3.03850930        1.36291830
C        0.43052772        3.98685820        9.33123790
C        1.36289030        4.84570220       10.26202800
C        9.31986440        2.23542710        2.19839050
C       10.17893900        3.10406550        3.14301540
C        9.34291490        3.96989370        4.06063440
C       10.22212600        4.85449390        4.84288400
C        0.46229925        2.26207960        4.02864170
C        1.31774590        3.11165760        4.80303270
C        0.43915041        4.00296130        2.28931140
C        1.37707850        4.92113820        3.14571510
C        9.32039630        2.15329480        5.74775400
C       10.24624700        3.08785430        6.69488210
C        9.33679670        4.00235530        7.66024870
C       10.21690000        4.90713920        8.48236620
C        0.45790266        2.20778750        7.51865930
C        1.38434250        3.12011220        8.41171240
C        0.47419908        4.02163820        5.75537210
C        1.35550850        4.85995860        6.65882120
C        9.26093270        5.71332570        9.30472790
C       10.16345900        6.61245520       10.21224800
C        9.33714270        7.52429930        0.39963360
C       10.17522800        8.42559480        1.27531070
C        0.47777625        5.71800130        0.52548694
C        1.40832590        6.67252950        1.37069090
C        0.35585891        7.54783220        9.30283840
C        1.25907240        8.36287870       10.23988900
C        9.25895100        5.81218060        2.20604050
C       10.23944700        6.65513090        3.08234970
C        9.33106480        7.64233860        3.98122110
C       10.19009200        8.47170640        4.89917790
C        0.47772682        5.77235090        3.88027020
C        1.32252810        6.69645950        4.80305690
C        0.43303834        7.52066740        2.19208340
C        1.31221480        8.37769000        3.14585050
C        9.38790550        5.80125000        5.75045700
C       10.22008400        6.66846950        6.67915710
C        9.30710260        7.51208860        7.48058940
C       10.17515000        8.43578760        8.36336140
C        0.41969243        5.69503430        7.57878860
C        1.29177920        6.69272670        8.44584350
C        0.42404098        7.54987560        5.73204790
C        1.35789080        8.41419860        6.63587930
C        2.23696290        9.29171120        9.30355740
C        3.12507740       10.19617000       10.22564200
C        2.24239950        0.45046717        0.42769116
C        3.14736410        1.32778840        1.36584240
C        3.99668020        9.34808830        0.48077971
C        4.86201390       10.19890800        1.41221940
C        4.08559540        0.42915472        9.28850940
C        4.94839260        1.30536890       10.25800000
C        2.17399390        9.24618320        2.21661710
C        3.13672610       10.12455400        3.16268870
C        2.25219880        0.40243778        3.92922480
C        3.11524010        1.32761140        4.77525920
C        3.98589170        9.39143650        4.02074190
C        4.95822620       10.12904200        4.80651030
C        3.96751700        0.46202702        2.22858710
C        4.89841550        1.35599360        3.15368520
C        2.22009720        9.33224310        5.79648470
C        3.12713710       10.13673900        6.65933020
C        2.20525980        0.43518220        7.55291640
C        3.17109640        1.31438860        8.38865690
C        4.03296590        9.27362490        7.52058230
C        4.85896110       10.15414600        8.42970400
C        4.04224820        0.43545471        5.71253250
C        4.84089510        1.34534570        6.65234780
C        2.26511530        2.20512120        9.32321480
C        3.12000180        3.10925030       10.19049700
C        2.24002870        3.91338060        0.45999646
C        3.03006210        4.89582040        1.34560340
C        3.99410260        2.10800240        0.42179264
C        4.86737480        3.12867610        1.26470200
C        3.94833220        4.05153460        9.26944780
C        4.90901790        4.88067480       10.17159500
C        2.15566010        2.19422290        2.19175170
C        3.13915410        3.05967820        3.10816000
C        2.16054770        4.02126970        3.97029270
C        3.06601510        4.87399400        4.82466050
C        3.96701070        2.24034880        3.94187070
C        4.84079180        3.17152890        4.81206240
C        4.03416460        3.99413570        2.17360220
C        4.91469660        4.81361950        3.11936140
C        2.27335780        2.19979930        5.71706550
C        3.16313560        3.13425180        6.57304760
C        2.26019930        3.97646860        7.49456940
C        3.08320150        4.94005150        8.38460300
C        3.98105960        2.28117760        7.52774580
C        4.84785740        3.07520320        8.47094980
C        4.02665180        4.03745390        5.76616770
C        4.86189000        4.82306000        6.67804300
C        2.15060700        5.77162640        9.30589300
C        3.10945390        6.67556940       10.25570200
C        2.15547660        7.54659630        0.39733989
C        3.06382780        8.39193870        1.35927880
C        3.95804710        5.81476520        0.41487222
C        4.91941310        6.67623460        1.31010580
C        4.01307380        7.51539010        9.41914080
C        4.84285470        8.43142140       10.13752400
C        2.24666810        5.72638260        2.23852930
C        3.07798620        6.66476500        3.07108500
C        2.16919760        7.58309540        4.01724300
C        3.17474450        8.45159640        4.92020130
C        3.97827610        5.81616980        3.98487260
C        4.88276590        6.60395220        4.85518050
C        4.00442330        7.55288800        2.22005210
C        4.91443510        8.45443410        3.14816880
C        2.17504480        5.75161060        5.69039590
C        3.10553090        6.60359260        6.59439750
C        2.24875220        7.45383970        7.63038990
C        3.14699030        8.41751250        8.40612940
C        3.90715350        5.77246250        7.44092170
C        4.83957500        6.67884870        8.44760320
C        3.99635510        7.54549000        5.77327980
C        4.91204460        8.36979940        6.72517210
C        5.71776340        9.30685800        9.33282760
C        6.62511110       10.16934200       10.20976100
C        5.77834360        0.47589239        0.47271758
C        6.65228730        1.37150720        1.32070490
C        7.50440920        9.37397260        0.46324203
C        8.39515070       10.26330000        1.31807690
C        7.46971740        0.54215936        9.32402800
C        8.43162630        1.36028770       10.18418900
C        5.71825210        9.33268270        2.27417860
C        6.67702010       10.22111600        3.06932690
C        5.82054430        0.44482965        3.91055180
C        6.57293050        1.33018340        4.82273950
C        7.50928490        9.34754860        3.93586560
C        8.46384870       10.29969000        4.90874490
C        7.53827740        0.44773356        2.22833630
C        8.38783960        1.35040730        3.10964270
C        5.81116760        9.34041010        5.75326780
C        6.67372320       10.20859500        6.70658960
C        5.75741600        0.46278095        7.59191260
C        6.71413050        1.28086670        8.54098950
C        7.51941120        9.32007780        7.58937070
C        8.38517120       10.18579100        8.43567110
C        7.60220270        0.46638351        5.81631180
C        8.42239230        1.37256030        6.69136350
C        5.77190470        2.29151920        9.41037920
C        6.67386190        3.14537530       10.25508800
C        5.79750710        3.99028050        0.44833222
C        6.68431890        4.93402580        1.33221460
C        7.43506680        2.22866750        0.50977349
C        8.42305710        3.12394130        1.26848270
C        7.51978930        3.95641280        9.26871660
C        8.43381920        4.89410000       10.19980300
C        5.82189170        2.23986630        2.25404340
C        6.67668860        3.12527400        3.12365900
C        7.52716710        2.26037750        3.97720550
C        8.46197200        3.12801230        4.95086420
C        7.53165780        4.04122330        2.16889920
C        8.39952460        4.88674420        3.10318130
C        5.85138290        2.23876550        5.73054620
C        6.71912180        3.08032880        6.67315670
C        5.78353660        4.05590120        7.58966450
C        6.67163010        4.88648030        8.39952100
C        7.50686270        2.27167810        7.58592190
C        8.44485160        3.12204690        8.43167830
C        7.65906180        4.02185910        5.82879170
C        8.46967150        4.82364050        6.66088590
C        5.70681570        5.76635170        9.30828790
C        6.65680400        6.65614090       10.18529900
C        5.75406480        7.61936480        0.37231750
C        6.60527060        8.45002580        1.32245390
C        7.46798650        5.79177680        0.40460344
C        8.36666720        6.66328700        1.29310740
C        7.51941050        7.54051180        9.27938200
C        8.48028560        8.45571180       10.17588800
C        5.83937480        5.77211650        2.23290150
C        6.68091920        6.62297510        3.14726800
C        5.79546010        7.53305650        4.06756680
C        6.61670030        8.38945220        4.91810100
C        7.63483180        5.83146890        3.96571000
C        8.44028060        6.64657720        4.82881940
C        7.46525200        7.57632400        2.19094590
C        8.36909820        8.46741170        3.12465830
C        5.78320270        5.76925910        5.80562570
C        6.60550260        6.65607810        6.62262040
C        5.82060940        7.53737970        7.55228400
C        6.62947420        8.40566290        8.42205600
C        7.48797360        5.72906360        7.50979420
C        8.42890280        6.62481570        8.45478360
C        7.55684640        7.45985900        5.75112220
C        8.39919410        8.35072670        6.67003440
N        5.75700480        3.99608830        3.94698000
