&CONTROL
calculation = 'scf'
restart_mode = 'from_scratch'
verbosity = 'high'
wf_collect = .true.
pseudo_dir='/home/arpank/pseudopotentials/'
tprnfor = .true.
/
&SYSTEM
ibrav = 0
ecutwfc = 60
tot_charge = -1
nspin = 2
tot_magnetization = 2.0
nbnd = 480
nat = 215
ntyp = 2
input_dft = 'PBE0'
exx_fraction = 0.18
ecutfock = 120
/
&ELECTRONS
conv_thr = 1D-8
diago_full_acc=.true.
mixing_beta = 0.3
/
&IONS
ion_dynamics='bfgs'
ion_positions='default'
/
K_POINTS gamma
ATOMIC_SPECIES
C  12.01099968  C_ONCV_PBE-1.0.upf
N  14.00699997  N_ONCV_PBE-1.0.upf
CELL_PARAMETERS angstrom
    10.65000000      0.00000000      0.00000000
     0.00000000     10.65000000      0.00000000
     0.00000000      0.00000000     10.65000000
ATOMIC_POSITIONS angstrom
C        9.29486400        9.34162500        9.37125200
C       10.26824100       10.20025200       10.20643200
C        9.28737270        0.45331795        0.47093022
C       10.27247600        1.39118290        1.32645610
C        0.40462643        9.34986550        0.48659478
C        1.29330870       10.19811700        1.38160460
C        0.42436434        0.41971599        9.29512760
C        1.33952660        1.28641010       10.23334700
C        9.32842260        9.36901570        2.21623390
C       10.22436600       10.22339000        3.15122880
C        9.30683360        0.42938669        4.02272510
C       10.21511300        1.39333960        4.88764630
C        0.43334550        9.32362840        4.07321750
C        1.42685650       10.18672000        4.82669940
C        0.41988567        0.41893689        2.22231980
C        1.29104470        1.27908040        3.12010880
C        9.29220300        9.29036190        5.81268480
C       10.23058500       10.19753700        6.68995820
C        9.32475240        0.54116306        7.52095390
C       10.19070300        1.32229980        8.40734230
C        0.42905753        9.30886180        7.51964370
C        1.28020740       10.14604800        8.40173250
C        0.46031736        0.38060072        5.76060210
C        1.35600880        1.38671780        6.68488490
C        9.26698460        2.19863040        9.34971450
C       10.17010700        3.08113930       10.24120400
C        9.29905560        4.02534490        0.52390789
C       10.19352900        4.90264500        1.37634270
C        0.41627473        2.20338550        0.46929081
C        1.31514200        3.12565550        1.33439440
C        0.39250410        3.97184690        9.33309770
C        1.23259480        4.90494720       10.20743500
C        9.20884440        2.22886050        2.31717280
C       10.17488900        3.09754260        3.15247470
C        9.27577560        4.06115300        3.93795560
C       10.21337500        4.91977790        4.84304910
C        0.44218537        2.23344160        4.04512240
C        1.36913360        3.07089350        4.96370920
C        0.46510202        3.95840080        2.22765470
C        1.28231460        4.85108150        3.11207100
C        9.41779810        2.24275550        5.77022020
C       10.14339000        3.15608770        6.66109320
C        9.31387610        4.02725920        7.56391510
C       10.20887500        4.90571320        8.42145180
C        0.49156672        2.30552190        7.50126700
C        1.34169680        3.17162620        8.40208470
C        0.39775231        3.99951650        5.73217560
C        1.34208860        4.86332220        6.67085420
C        9.28026580        5.78109000        9.29000150
C       10.18517100        6.58375220       10.12666200
C        9.34526810        7.54361430        0.49522390
C       10.14615000        8.43807300        1.33405430
C        0.36105983        5.78587220        0.50966616
C        1.30990170        6.70091290        1.27606470
C        0.36223056        7.51623980        9.33571180
C        1.27996800        8.41849530       10.18036400
C        9.32489770        5.82438700        2.16756640
C       10.18661200        6.62009830        3.13157890
C        9.38135980        7.50793970        3.99563380
C       10.25053700        8.41305020        4.99988360
C        0.45433332        5.74415070        3.90132840
C        1.40357240        6.57625120        4.89443030
C        0.48603811        7.52473130        2.25495020
C        1.32193520        8.43981180        3.12366260
C        9.36348170        5.79124570        5.77563840
C       10.21280200        6.66532980        6.68114950
C        9.31758840        7.51805930        7.60068090
C       10.17259600        8.41166090        8.38341120
C        0.45344118        5.80090310        7.49579980
C        1.39006100        6.64140900        8.32499200
C        0.48802233        7.59051960        5.78138030
C        1.31596360        8.43065100        6.64470960
C        2.21659500        9.34543110        9.41845040
C        3.11252630       10.29503400       10.18315700
C        2.25067000        0.52238100        0.48253950
C        3.10486960        1.29608970        1.23257130
C        4.04056890        9.36625250        0.41728533
C        4.82446990       10.16618400        1.32972150
C        3.95914430        0.47548199        9.37419360
C        4.89604210        1.38590760       10.23283700
C        2.21163000        9.29101970        2.24716350
C        3.08585200       10.18878500        3.10464230
C        2.25966720        0.42409139        3.99267280
C        3.13037440        1.34361230        4.86895930
C        4.01112800        9.28194650        4.01311330
C        4.87684100       10.14550500        4.88845990
C        4.01848520        0.39158819        2.14047960
C        4.89245850        1.28707310        3.08122810
C        2.27262820        9.23639240        5.70551310
C        3.11091350       10.18495600        6.67294540
C        2.21215810        0.51597377        7.52436360
C        3.12304140        1.26798560        8.41395470
C        4.05539640        9.33987100        7.53350020
C        4.92601290       10.17858800        8.46047240
C        3.99122430        0.44431002        5.78764480
C        4.85651510        1.35238970        6.68161640
C        2.26669000        2.23641910        9.29578980
C        3.11185810        3.17843290       10.17329000
C        2.22626030        4.05572300        0.47998152
C        3.14959320        4.91913620        1.27527540
C        3.97128370        2.22266760        0.38826446
C        4.89315400        3.08075100        1.30893630
C        4.01014200        4.00336860        9.23817740
C        4.93276090        4.91319750       10.18568300
C        2.26729880        2.23017210        2.10932740
C        3.08719490        3.05677640        3.09261600
C        2.13800120        3.95332950        3.97222280
C        3.15742200        4.84397360        4.88455920
C        3.99259420        2.16875360        3.97091390
C        4.85513850        3.09465980        4.88277990
C        3.96867330        3.95520720        2.21778810
C        4.87341850        4.78280080        3.05157000
C        2.29828150        2.25242570        5.73623100
C        3.13290360        3.11524970        6.65267750
C        2.22680510        4.01153970        7.55157320
C        3.10830190        4.97257330        8.43099050
C        3.95857330        2.16719930        7.54668150
C        4.89509940        3.12464770        8.43189820
C        4.03925650        4.07027620        5.72873150
C        4.97566080        4.91816170        6.61660830
C        2.13505040        5.80067730        9.28747910
C        3.09210830        6.63431140       10.13417500
C        2.16237830        7.53348160        0.41935449
C        3.09613620        8.36280530        1.35879800
C        3.96779110        5.77136440        0.45030099
C        4.88622800        6.67817400        1.31741150
C        3.99296410        7.48468330        9.33618930
C        4.93753040        8.47301090       10.10366700
C        2.19810920        5.76469050        2.19990270
C        3.03123170        6.63170170        3.09038030
C        2.17173330        7.47640790        4.00051250
C        3.17457610        8.34220480        4.81738390
C        4.05507790        5.68307810        4.00482370
C        4.90010200        6.59290500        4.88017570
C        3.96228410        7.51541000        2.12952370
C        4.86330590        8.43950100        3.03098990
C        2.18966020        5.70622450        5.76777780
C        3.14848920        6.64252330        6.62245790
C        2.27449840        7.53978500        7.55270670
C        3.11052080        8.46210360        8.46226250
C        4.03438060        5.81917210        7.50693090
C        4.93360360        6.70500000        8.44025440
C        4.03040980        7.53509010        5.72888590
C        4.86037030        8.45231020        6.59777300
C        5.80472670        9.30553380        9.34582500
C        6.60656630       10.22369000       10.22578400
C        5.74395360        0.44202409        0.52022952
C        6.64994470        1.37665550        1.30107840
C        7.55523610        9.32698380        0.50771348
C        8.49536690       10.26461100        1.37707030
C        7.52027180        0.44905965        9.33093420
C        8.49869640        1.27117500       10.20248900
C        5.77582770        9.30333140        2.18290360
C        6.61837600       10.23144100        3.07621500
C        5.72935240        0.38303234        4.00543540
C        6.69200230        1.33193760        4.86701730
C        7.50420760        9.19860860        3.99952910
C        8.47051360       10.12630100        4.83779690
C        7.58615190        0.42977767        2.23364860
C        8.46626190        1.30897830        3.15401120
C        5.78281920        9.38204590        5.71907220
C        6.68645900       10.13965300        6.61393990
C        5.74370370        0.37233090        7.53143890
C        6.68966350        1.36318580        8.44568810
C        7.56183320        9.25222400        7.51835190
C        8.48357090       10.16976700        8.44895670
C        7.53736580        0.39008624        5.77988680
C        8.41838700        1.30206440        6.67961960
C        5.79458010        2.19486900        9.39009950
C        6.63910620        3.04114770       10.20444300
C        5.76247490        3.89136800        0.43864633
C        6.61927200        4.88111940        1.33873790
C        7.59714770        2.21081810        0.44581645
C        8.30874500        3.13565620        1.38357390
C        7.47108180        3.95215380        9.26845200
C        8.32599500        4.85647860       10.22469000
C        5.80446430        2.16398010        2.18542820
C        6.66218360        3.14976990        3.07793170
C        7.59916690        2.31196920        4.01071840
C        8.42446920        3.17534400        4.94319170
C        7.54007440        4.08365580        2.23892060
C        8.36678270        4.96789240        3.15424610
C        5.79325440        2.21315380        5.77237250
C        6.63189470        3.17579290        6.70751800
C        5.74610850        3.98659370        7.60181450
C        6.64194400        4.92700690        8.41973660
C        7.52216680        2.24758390        7.59861530
C        8.45690850        3.13863630        8.48424410
C        7.58963020        4.08365350        5.82477970
C        8.39057620        4.91209800        6.67840770
C        5.76679280        5.80115820        9.35828740
C        6.69238830        6.66946660       10.26247800
C        5.79277540        7.57766530        0.46977808
C        6.64098700        8.41813930        1.34546200
C        7.57034710        5.78104250        0.42219195
C        8.40359970        6.62513690        1.26941980
C        7.52981240        7.57493310        9.28762270
C        8.45320210        8.49145860       10.29301100
C        5.74236830        5.74639360        2.25494670
C        6.66167520        6.65633900        3.11578230
C        5.79651880        7.52429310        4.02386080
C        6.65512740        8.38773990        4.91296450
C        7.57472700        5.91144020        3.98078540
C        8.41584510        6.66040730        4.85904990
C        7.55884140        7.43648400        2.16831930
C        8.44168200        8.41350670        3.04329650
C        5.71261730        5.78463910        5.78940090
C        6.67584250        6.63867040        6.64601050
C        5.78606900        7.67409740        7.50423830
C        6.65808500        8.49167390        8.43007710
C        7.52514560        5.75506780        7.56764360
C        8.43827630        6.65539050        8.43619910
C        7.50678830        7.47065090        5.77263200
C        8.43032630        8.47465120        6.73078040
N        5.66052190        3.93432570        3.87910400
