&CONTROL
calculation = 'scf'
restart_mode = 'from_scratch'
verbosity = 'high'
wf_collect = .true.
pseudo_dir='/home/arpank/pseudopotentials/'
tprnfor = .true.
/
&SYSTEM
ibrav = 0
ecutwfc = 60
tot_charge = -1
nspin = 2
tot_magnetization = 2.0
nbnd = 480
nat = 215
ntyp = 2
input_dft = 'PBE0'
exx_fraction = 0.18
ecutfock = 120
/
&ELECTRONS
conv_thr = 1D-8
diago_full_acc=.true.
mixing_beta = 0.3
/
&IONS
ion_dynamics='bfgs'
ion_positions='default'
/
K_POINTS gamma
ATOMIC_SPECIES
C  12.01099968  C_ONCV_PBE-1.0.upf
N  14.00699997  N_ONCV_PBE-1.0.upf
CELL_PARAMETERS angstrom
    10.65000000      0.00000000      0.00000000
     0.00000000     10.65000000      0.00000000
     0.00000000      0.00000000     10.65000000
ATOMIC_POSITIONS angstrom
C        9.33024220        9.31035880        9.40505590
C       10.26668300       10.20713500       10.19086700
C        9.31394030        0.42593208        0.40815118
C       10.20632900        1.28156300        1.34051860
C        0.45155634        9.28055680        0.50571007
C        1.30529530       10.18218100        1.37631900
C        0.43045733        0.50228267        9.33826970
C        1.33533770        1.33117470       10.25948900
C        9.31192040        9.29525710        2.12082350
C       10.22140700       10.23435600        3.06155760
C        9.26094930        0.42516746        3.95002920
C       10.24370100        1.30606190        4.90489050
C        0.42310171        9.27294990        3.94933450
C        1.28739270       10.24540800        4.91845520
C        0.42984024        0.39728325        2.17308840
C        1.35396080        1.34801770        3.09927410
C        9.30805930        9.33437050        5.81769790
C       10.20632900       10.22442200        6.67679840
C        9.36912280        0.48618086        7.50199220
C       10.15667600        1.30283670        8.40153490
C        0.44027265        9.23684130        7.53648280
C        1.32262620       10.26138400        8.38008110
C        0.43990786        0.45919936        5.76442340
C        1.29605940        1.34499150        6.59775380
C        9.28124030        2.22482850        9.32578040
C       10.20194600        3.15400030       10.22437800
C        9.30534300        4.00660600        0.42729284
C       10.25845500        4.96732000        1.36668640
C        0.37905456        2.24479410        0.50434404
C        1.28458520        3.13169660        1.27992880
C        0.37777005        3.98893840        9.31900130
C        1.30636600        4.86394040       10.28844900
C        9.33860740        2.23589180        2.22227650
C       10.24359400        3.10560720        3.10878420
C        9.32124510        3.93362810        3.97079980
C       10.23059200        4.89095190        4.91422100
C        0.45092425        2.37197170        4.00931310
C        1.33339040        3.16498390        4.81736890
C        0.42919868        3.97372510        2.21253100
C        1.29341070        4.82394870        3.11184510
C        9.42465880        2.18454800        5.77478900
C       10.20214300        3.08004390        6.69202560
C        9.32812180        4.01835410        7.62054670
C       10.21111100        4.97785130        8.38882240
C        0.42616124        2.21980830        7.57764990
C        1.29872370        3.12957690        8.43601270
C        0.45555937        4.00652500        5.82406560
C        1.31877380        4.82613540        6.70664780
C        9.36420450        5.71582190        9.31854790
C       10.25694800        6.66738710       10.20213600
C        9.35221090        7.58558410        0.47382502
C       10.23293100        8.40942370        1.39217160
C        0.43677197        5.78178440        0.42132809
C        1.34305120        6.67314510        1.35003020
C        0.45735662        7.54816120        9.35624760
C        1.34260730        8.48834890       10.19101300
C        9.30055430        5.69369020        2.25165250
C       10.22445600        6.66693870        3.09194240
C        9.38243860        7.50113750        4.05337740
C       10.21643100        8.42718240        4.92007960
C        0.48432758        5.77090590        4.00786070
C        1.33779800        6.62540500        4.89514290
C        0.40705879        7.56608860        2.19023420
C        1.36234550        8.38885250        3.11293850
C        9.41500310        5.79938600        5.82104870
C       10.25077300        6.71726360        6.65942950
C        9.32606410        7.57847660        7.59491620
C       10.16852800        8.48080290        8.44903210
C        0.51824872        5.84750240        7.59784280
C        1.40648630        6.71275670        8.42797380
C        0.45883422        7.56244470        5.82638590
C        1.34383990        8.40307780        6.70183530
C        2.22562850        9.37440820        9.24700810
C        3.10918440       10.29557900       10.28239900
C        2.19431830        0.47889169        0.47082784
C        3.10391770        1.32987740        1.39247990
C        3.98531050        9.34005800        0.44968187
C        4.88164980       10.16401000        1.34408080
C        3.96038260        0.44381538        9.29059540
C        4.87590360        1.26721400       10.18590400
C        2.18073580        9.35155370        2.20905000
C        3.13121550       10.21784200        3.05962850
C        2.15978750        0.41441851        3.89612720
C        3.03106400        1.38399100        4.81363840
C        3.99175460        9.35203240        4.02010990
C        4.88670630       10.20660400        4.84664890
C        3.99496200        0.43024510        2.22563830
C        4.86430720        1.32826350        3.07743020
C        2.18717220        9.33491090        5.73023100
C        3.11930740       10.20529600        6.67808990
C        2.17592510        0.42740306        7.47636120
C        3.07134050        1.33495360        8.38548270
C        3.99574190        9.42509700        7.54439860
C        4.85624960       10.23241900        8.45021920
C        4.03761680        0.50063920        5.76087130
C        4.89619660        1.32482140        6.60298360
C        2.19856360        2.22959690        9.34730280
C        3.03044600        3.10679290       10.15715900
C        2.15215030        3.95173530        0.54582717
C        3.13416040        4.88558240        1.22575540
C        4.03535450        2.17292020        0.37026467
C        4.88279570        3.12827710        1.23954820
C        3.94428030        4.06065040        9.26878460
C        4.92326740        4.98427190       10.22497500
C        2.25181530        2.31746050        2.16662460
C        3.02116430        3.11273200        3.10134010
C        2.20717910        3.94973930        4.00317540
C        3.07267840        4.86676440        4.89936860
C        3.91629590        2.19491280        3.92167080
C        4.93880130        3.10311170        4.79102200
C        3.99390180        3.95672950        2.14928590
C        4.86411210        4.84767570        3.11298120
C        2.13963860        2.32791010        5.80167180
C        3.14983080        3.07475630        6.64352620
C        2.27500530        3.96275760        7.54803410
C        3.09467170        4.95495660        8.47244010
C        4.08794850        2.21239900        7.61828910
C        4.89680150        3.21061250        8.44575520
C        3.99470660        3.96846450        5.78377650
C        4.90103240        4.84598900        6.71344200
C        2.19156320        5.79852980        9.33255610
C        3.17572180        6.72257450       10.20120600
C        2.19593730        7.66864050        0.42929030
C        3.05690610        8.40196700        1.30904450
C        4.02023060        5.83492600        0.41312988
C        4.85172310        6.68362680        1.31554820
C        3.97375860        7.49330870        9.24756850
C        4.88781190        8.39199840       10.25153400
C        2.24220170        5.76091320        2.20955820
C        3.11748480        6.69964400        3.10917140
C        2.18577840        7.49723720        3.94961810
C        3.06706840        8.42653420        4.88720090
C        3.92024870        5.74051100        4.04925000
C        4.89724610        6.61731660        4.91105150
C        4.01757880        7.59610620        2.22679230
C        4.83127900        8.40448940        3.10585820
C        2.18630930        5.65824460        5.78755950
C        3.13100300        6.63132720        6.62905380
C        2.22826030        7.54509490        7.55700190
C        3.10042230        8.48662630        8.37952670
C        4.04986420        5.76642810        7.53011740
C        4.84464540        6.67916160        8.39132960
C        3.97163250        7.53661790        5.75645750
C        4.86126410        8.46609170        6.66663310
C        5.69606530        9.30226960        9.27446770
C        6.65087750       10.20864100       10.12984900
C        5.76297650        0.27812782        0.40060982
C        6.64470790        1.25928790        1.29491820
C        7.58319600        9.34179420        0.44275207
C        8.44723910       10.11091400        1.29824770
C        7.54123400        0.47664268        9.33124120
C        8.46222930        1.30190300       10.17518800
C        5.76774410        9.26264440        2.30749410
C        6.59851080       10.19284200        3.05900070
C        5.70391470        0.50715039        3.95943700
C        6.61461390        1.35848850        4.92412340
C        7.49676220        9.31435910        4.01516420
C        8.40075410       10.15883900        4.85810590
C        7.50883320        0.38183248        2.23594350
C        8.35720160        1.34750190        3.15536280
C        5.78394050        9.29886550        5.79453230
C        6.67057270       10.24433700        6.68951700
C        5.79320650        0.42258361        7.56038250
C        6.63585810        1.28303140        8.41368500
C        7.53231180        9.32186810        7.56139890
C        8.40883800       10.15445700        8.51778940
C        7.49959850        0.49504913        5.77292710
C        8.51861490        1.29989980        6.71490640
C        5.75896190        2.24711380        9.33736280
C        6.64946140        3.06472350       10.19074100
C        5.78861900        3.97947930        0.43922521
C        6.67455320        4.85510740        1.33537890
C        7.50783480        2.14828660        0.34405440
C        8.37231860        3.06306180        1.37160620
C        7.55552070        3.91710010        9.32777900
C        8.49984380        4.90641360       10.17999300
C        5.76297850        2.22357240        2.22969450
C        6.66834530        3.12888610        3.08257210
C        7.54117440        2.31054340        3.98272260
C        8.45276150        3.07295790        4.91082970
C        7.57093710        3.98366850        2.13088710
C        8.45231290        4.79575100        3.13552820
C        5.75417260        2.18877080        5.76082100
C        6.70507440        3.09587370        6.61856550
C        5.81403300        3.98229430        7.52839630
C        6.73122190        4.84092400        8.35676870
C        7.61560240        2.20006600        7.51326310
C        8.39683610        3.13356270        8.46631780
C        7.63415820        3.97699300        5.79202310
C        8.44202360        4.95301290        6.68472340
C        5.82573410        5.75333730        9.28056690
C        6.69095430        6.66219550       10.22028300
C        5.76189270        7.53540170        0.44605372
C        6.70387240        8.42581230        1.35281570
C        7.57328760        5.73538660        0.46486189
C        8.47913550        6.61557340        1.30670320
C        7.51459580        7.55503640        9.31145780
C        8.40751880        8.44568790       10.16239800
C        5.77551410        5.76139270        2.24854500
C        6.68605050        6.58231140        3.09761600
C        5.77638810        7.46248720        4.04273770
C        6.62441580        8.39462750        4.89377580
C        7.61726900        5.78101560        3.98153650
C        8.35257530        6.67220760        4.92698160
C        7.66354010        7.55700630        2.22390210
C        8.45086520        8.36595110        3.14296000
C        5.66966900        5.81672990        5.82577040
C        6.62949980        6.64111350        6.70516310
C        5.74895180        7.50495110        7.53854130
C        6.63666880        8.40595150        8.44093600
C        7.59482330        5.79974920        7.53490480
C        8.43984430        6.65461680        8.40782070
C        7.51518660        7.50094710        5.75145580
C        8.46270380        8.45967970        6.72227550
N        5.68282010        3.90524470        3.93045200
