&CONTROL
calculation = 'scf'
restart_mode = 'from_scratch'
verbosity = 'high'
wf_collect = .true.
pseudo_dir='/home/arpank/pseudopotentials/'
tprnfor = .true.
/
&SYSTEM
ibrav = 0
ecutwfc = 60
tot_charge = -1
nspin = 2
tot_magnetization = 2.0
nbnd = 480
nat = 215
ntyp = 2
input_dft = 'PBE0'
exx_fraction = 0.18
ecutfock = 120
/
&ELECTRONS
conv_thr = 1D-8
diago_full_acc=.true.
mixing_beta = 0.3
/
&IONS
ion_dynamics='bfgs'
ion_positions='default'
/
K_POINTS gamma
ATOMIC_SPECIES
C  12.01099968  C_ONCV_PBE-1.0.upf
N  14.00699997  N_ONCV_PBE-1.0.upf
CELL_PARAMETERS angstrom
    10.65000000      0.00000000      0.00000000
     0.00000000     10.65000000      0.00000000
     0.00000000      0.00000000     10.65000000
ATOMIC_POSITIONS angstrom
C        9.27361400        9.31595640        9.29013150
C       10.12399100       10.27831000       10.18340400
C        9.31141950        0.40911195        0.51135813
C       10.22744500        1.27328600        1.39057730
C        0.41537004        9.35731880        0.45261821
C        1.32165010       10.16715500        1.31341440
C        0.42918619        0.48821051        9.34479470
C        1.31277300        1.37903250       10.22568400
C        9.36601260        9.27696020        2.26384590
C       10.20897000       10.21264400        3.20532240
C        9.33319820        0.37587578        3.97699750
C       10.15683200        1.30793220        4.80868960
C        0.48734384        9.31882900        3.97260480
C        1.37870170       10.17255300        4.96872520
C        0.44805049        0.45770679        2.22700170
C        1.34315580        1.35146100        3.16686250
C        9.28118840        9.35890430        5.73110720
C       10.14644600       10.20585700        6.60038440
C        9.30312660        0.54073461        7.56853130
C       10.18350800        1.37035410        8.37938130
C        0.37487529        9.41665750        7.45994870
C        1.30833550       10.21928900        8.36353850
C        0.39701684        0.42410999        5.73384610
C        1.32045180        1.33561190        6.65649360
C        9.38575240        2.23108060        9.32594240
C       10.19372900        3.12783930       10.22186500
C        9.29990290        4.01711350        0.49525829
C       10.22270300        4.88980300        1.29063040
C        0.46616320        2.20084920        0.49070364
C        1.31839490        3.09797520        1.35589870
C        0.40845665        3.96594900        9.35452720
C        1.38817400        4.93443530       10.21309800
C        9.29933840        2.18623780        2.23878990
C       10.17902700        3.11658690        3.11508730
C        9.34463310        4.00521010        4.01004880
C       10.19571300        4.88440990        4.89538390
C        0.45057365        2.22598070        3.96645740
C        1.32213520        3.14410870        4.89676490
C        0.45992105        3.96874710        2.22561900
C        1.26050810        4.93800510        3.06062490
C        9.27675840        2.22470760        5.75057200
C       10.20340800        3.07450490        6.62399650
C        9.34419030        3.96075340        7.52071150
C       10.23092000        4.90707380        8.41078050
C        0.40480887        2.30962120        7.50993460
C        1.22213760        3.15187580        8.40798830
C        0.50035375        4.01176300        5.81170270
C        1.32248500        4.84343920        6.61562760
C        9.27808960        5.68538780        9.31312830
C       10.19170200        6.59753990       10.27782400
C        9.30795670        7.52705560        0.40177856
C       10.21490300        8.45001800        1.34063940
C        0.42183394        5.74823220        0.45400857
C        1.27893700        6.63374260        1.28572440
C        0.44840367        7.51558960        9.38171420
C        1.34038690        8.34384470       10.17069500
C        9.37440960        5.72841660        2.22313870
C       10.20841700        6.67682950        3.17860350
C        9.38272540        7.57885830        4.04596390
C       10.18918500        8.46215120        4.85740930
C        0.46588443        5.71654140        4.04469750
C        1.38260220        6.65917530        4.87069930
C        0.32735367        7.55312330        2.21147690
C        1.30672210        8.47249820        3.13008170
C        9.34392460        5.75644390        5.75935850
C       10.19668900        6.73991810        6.69583540
C        9.31067600        7.52714440        7.50387730
C       10.17473600        8.41942850        8.43177640
C        0.49878067        5.77506050        7.53392700
C        1.35655700        6.65151240        8.45450030
C        0.42051608        7.48380230        5.72910860
C        1.28099150        8.43296590        6.67306000
C        2.14406170        9.26355290        9.31613810
C        3.08368850       10.19903300       10.22674200
C        2.18809050        0.44455159        0.36687223
C        3.09622500        1.29962590        1.25382830
C        3.94446680        9.36913850        0.47533697
C        4.85719120       10.18184600        1.28794950
C        3.91203490        0.46109083        9.25332210
C        4.91798660        1.33342420       10.14377000
C        2.25528150        9.34737590        2.26584640
C        3.09322720       10.20403500        3.12304020
C        2.21385160        0.42161712        3.98692030
C        3.06362460        1.30586880        4.83193980
C        3.96955790        9.29727760        3.96870270
C        4.92694040       10.21941100        4.96997610
C        3.95447590        0.45116294        2.18651250
C        4.90390470        1.23151200        3.06070160
C        2.20051770        9.33075770        5.72866020
C        3.05750290       10.23338600        6.67857770
C        2.21952450        0.45039426        7.50438020
C        3.11521700        1.38012680        8.41915160
C        3.97971430        9.32861270        7.47221310
C        4.92547020       10.32448000        8.35527030
C        4.02435010        0.42623973        5.76857330
C        4.89153730        1.40104130        6.64376400
C        2.15730820        2.28660150        9.30723330
C        3.11699860        3.10415790       10.14849900
C        2.24514870        4.04820750        0.45275507
C        3.09038870        4.96418680        1.27761500
C        3.92210100        2.20476420        0.44969162
C        4.86656200        3.17157290        1.32371220
C        4.00356630        4.03591090        9.32863980
C        4.89345070        4.88896240       10.20877000
C        2.20580580        2.23878390        2.23925220
C        3.18323250        3.02415660        3.05422330
C        2.21464990        3.96717790        3.95438620
C        3.08000690        4.89767970        4.85585360
C        4.04044540        2.23700450        3.99428240
C        4.80481240        3.05827440        4.76390240
C        4.03249890        4.03562970        2.17905070
C        4.94349110        4.82711830        3.20153780
C        2.24019660        2.24819450        5.76260230
C        3.08631010        3.12410870        6.65022260
C        2.23723500        3.96589610        7.56763540
C        3.12148320        4.92117170        8.37563590
C        4.02134540        2.22968920        7.52517950
C        4.88935430        3.09022200        8.44323850
C        4.10027400        4.01333220        5.67465060
C        5.02139490        4.84990510        6.58647350
C        2.23002190        5.75644770        9.29440880
C        3.17377880        6.63408230       10.20615800
C        2.20228540        7.53915730        0.42725116
C        3.06795710        8.44307530        1.32420330
C        3.94849180        5.80167090        0.46327510
C        4.87845820        6.64380020        1.32943590
C        4.03344940        7.62434970        9.34028330
C        4.89303650        8.45274750       10.26498100
C        2.18460030        5.84255690        2.23776650
C        3.13574880        6.66492130        3.20915660
C        2.19091360        7.53878560        3.96259990
C        3.15250430        8.39021370        4.81320830
C        4.05478110        5.75251760        3.97243110
C        4.90620760        6.62748280        4.91053320
C        3.99641140        7.56059880        2.29273400
C        4.85548450        8.46093500        3.06524680
C        2.21313140        5.75508120        5.78485580
C        3.13725780        6.67989900        6.76165360
C        2.21619740        7.59231120        7.58854150
C        3.09713100        8.45310470        8.45761460
C        4.10830180        5.70875950        7.61238480
C        4.92368270        6.67614050        8.46295450
C        4.01135940        7.50858300        5.76323740
C        4.92959360        8.47472630        6.57838120
C        5.78506190        9.38504360        9.27294980
C        6.60951010       10.14288200       10.19219500
C        5.72474340        0.47832333        0.43828882
C        6.62877580        1.35264370        1.30276960
C        7.51584440        9.27160990        0.40671933
C        8.39788750       10.12476900        1.31010550
C        7.58814240        0.36954703        9.32528910
C        8.41242630        1.25642320       10.23767300
C        5.75713780        9.32493300        2.23196110
C        6.61308670       10.19916200        3.10228170
C        5.72559750        0.38433035        3.96687940
C        6.61489600        1.28813600        4.82856880
C        7.48329180        9.34249820        3.95464020
C        8.37042090       10.24855900        4.86327140
C        7.51568340        0.48396506        2.21897750
C        8.44325210        1.28796780        3.12728580
C        5.77628220        9.33018200        5.75534080
C        6.63990860       10.23420300        6.66925370
C        5.81236710        0.52146135        7.49953140
C        6.70313550        1.21660920        8.41632810
C        7.56463320        9.34751380        7.57572840
C        8.45650610       10.19445100        8.45029170
C        7.51068070        0.43165093        5.76733250
C        8.37172770        1.32346050        6.65246730
C        5.79608360        2.20888270        9.25568360
C        6.66814610        3.13054210       10.16601600
C        5.77047570        4.01873950        0.40856059
C        6.70071860        4.83572740        1.32294690
C        7.50435780        2.21829230        0.46942038
C        8.43959490        3.10719880        1.43890800
C        7.55930800        3.94833930        9.31106460
C        8.49077800        4.84177440       10.29811600
C        5.83202410        2.14076900        2.20621520
C        6.63578510        3.11696910        3.10607120
C        7.59197190        2.25599530        3.98819510
C        8.41485940        3.12282980        4.85809930
C        7.47283350        4.01023680        2.27415220
C        8.44863150        4.91706530        3.14053840
C        5.76549480        2.21180250        5.79006010
C        6.62562180        3.08885620        6.70102400
C        5.79053840        4.01930730        7.57550600
C        6.58827100        4.86116110        8.42114930
C        7.59227830        2.17439040        7.65002500
C        8.43289880        3.02580450        8.40109570
C        7.58381360        3.90407600        5.86655580
C        8.47475690        4.87635080        6.59627210
C        5.84036360        5.73973260        9.30712660
C        6.63565370        6.55039270       10.22791600
C        5.79377390        7.57945370        0.43572137
C        6.68665110        8.37398960        1.30384970
C        7.60090670        5.68701500        0.46563559
C        8.50161450        6.62403900        1.37996470
C        7.59206700        7.55146060        9.28134420
C        8.37532650        8.42454460       10.15855600
C        5.81727040        5.72265840        2.25034200
C        6.62297040        6.59097970        3.16289350
C        5.72947200        7.50130710        4.03929400
C        6.73330290        8.35944670        4.87653550
C        7.59766120        5.85405980        3.97893250
C        8.43766220        6.73062780        4.99616780
C        7.54890000        7.49817270        2.27182710
C        8.42496070        8.37822090        3.16825550
C        5.77890150        5.91162630        5.83081310
C        6.67850280        6.67541360        6.71518500
C        5.78983410        7.59176690        7.59601410
C        6.67262970        8.50450860        8.41541590
C        7.57466080        5.77964230        7.51320970
C        8.43705660        6.60215100        8.47306680
C        7.54342920        7.58939530        5.76135660
C        8.41017590        8.48854670        6.59305490
N        5.66852290        3.94027930        3.98220860
