&CONTROL
calculation = 'scf'
restart_mode = 'from_scratch'
verbosity = 'high'
wf_collect = .true.
pseudo_dir='/home/arpank/pseudopotentials/'
tprnfor = .true.
/
&SYSTEM
ibrav = 0
ecutwfc = 60
tot_charge = -1
nspin = 2
tot_magnetization = 2.0
nbnd = 480
nat = 215
ntyp = 2
input_dft = 'PBE0'
exx_fraction = 0.18
ecutfock = 120
/
&ELECTRONS
conv_thr = 1D-8
diago_full_acc=.true.
mixing_beta = 0.3
/
&IONS
ion_dynamics='bfgs'
ion_positions='default'
/
K_POINTS gamma
ATOMIC_SPECIES
C  12.01099968  C_ONCV_PBE-1.0.upf
N  14.00699997  N_ONCV_PBE-1.0.upf
CELL_PARAMETERS angstrom
    10.65000000      0.00000000      0.00000000
     0.00000000     10.65000000      0.00000000
     0.00000000      0.00000000     10.65000000
ATOMIC_POSITIONS angstrom
C        9.33833130        9.28691960        9.28184830
C       10.15776500       10.24975900       10.19051700
C        9.25894230        0.41451348        0.41783864
C       10.19979000        1.33860410        1.32598560
C        0.37436847        9.31641050        0.42670653
C        1.30264350       10.16182100        1.31625610
C        0.46450530        0.47643311        9.35205560
C        1.38762380        1.36273620       10.18109400
C        9.26100330        9.34654350        2.23687820
C       10.21867800       10.14866400        3.09543320
C        9.29338460        0.44069425        4.01898350
C       10.14522400        1.23206400        4.77840800
C        0.42150165        9.30934630        3.98529570
C        1.33070770       10.18489500        4.84208950
C        0.40078386        0.46805416        2.23957880
C        1.34602650        1.36221740        3.14868980
C        9.26676400        9.24150380        5.75589870
C       10.21722700       10.19986400        6.60588170
C        9.31990480        0.40999096        7.50997290
C       10.20330300        1.31289170        8.40135320
C        0.47507717        9.31758770        7.52057490
C        1.38599590       10.20673200        8.40511840
C        0.41923133        0.46526200        5.76230760
C        1.34993650        1.29247030        6.58865390
C        9.34025360        2.23357410        9.28458440
C       10.16070300        3.06962690       10.19904200
C        9.26091540        4.00501360        0.50548471
C       10.24389300        4.90544900        1.35672800
C        0.42270419        2.22871600        0.44827123
C        1.31988670        3.09385700        1.37078010
C        0.51622711        3.96499590        9.25592110
C        1.35881910        4.85803730       10.21761000
C        9.35611160        2.27268960        2.23717720
C       10.20293200        3.11963000        3.09557170
C        9.31104180        4.01151380        4.10441910
C       10.21347100        4.86312710        4.96015160
C        0.45016813        2.18282780        3.98537940
C        1.28808470        3.07512850        4.82601190
C        0.39280098        3.94394930        2.34501030
C        1.30377050        4.89652690        3.08008950
C        9.38269280        2.26840950        5.81583570
C       10.26006100        3.12834500        6.68328730
C        9.29218300        4.03448180        7.50820140
C       10.24995000        4.89150170        8.36298150
C        0.50007768        2.27751900        7.53024090
C        1.29951930        3.12646850        8.50400160
C        0.51435197        3.96395980        5.88966080
C        1.37745080        4.87620660        6.69772640
C        9.31753040        5.74159790        9.28969600
C       10.22356900        6.60155620       10.22925200
C        9.30110640        7.52484690        0.44617513
C       10.15556400        8.44295530        1.32930180
C        0.45273457        5.72622900        0.50966421
C        1.32638830        6.60783890        1.37266240
C        0.42243954        7.55515080        9.31411380
C        1.32476050        8.42632810       10.21331500
C        9.32439430        5.76994630        2.18891470
C       10.17755400        6.62007390        3.12632740
C        9.33789290        7.50534780        4.05529720
C       10.18370700        8.40867250        4.92509230
C        0.43685286        5.75625650        3.97597510
C        1.42313750        6.66621550        4.85145390
C        0.42278920        7.51333970        2.26116250
C        1.39386840        8.44461740        3.08087360
C        9.34462110        5.77426030        5.82799980
C       10.22695600        6.64206660        6.69660000
C        9.31915990        7.56505450        7.61624450
C       10.19268900        8.46092230        8.40043460
C        0.46607559        5.74518860        7.56793320
C        1.37697690        6.68117010        8.42956060
C        0.47562407        7.60254970        5.75995350
C        1.40032630        8.47660880        6.68852680
C        2.21209640        9.30944850        9.38244360
C        3.08432290       10.16009700       10.15491100
C        2.20098900        0.53809753        0.41104686
C        3.13182810        1.25893380        1.32161600
C        4.04065310        9.26243260        0.44605844
C        4.96994330       10.17373300        1.32796620
C        3.96899410        0.37651821        9.32349930
C        4.81000910        1.37503770       10.22705500
C        2.17549430        9.33230650        2.20258220
C        3.11122300       10.24558100        3.04605490
C        2.25197760        0.39200782        3.96361470
C        3.06329080        1.34793810        4.86377360
C        3.97503190        9.31988020        3.93892400
C        4.89375650       10.25435400        4.85194980
C        3.97488740        0.46842411        2.22838680
C        4.82938560        1.32214880        3.09872580
C        2.28020730        9.38767810        5.81373170
C        3.12597020       10.26360000        6.61189980
C        2.24352260        0.43429085        7.55724510
C        3.07469750        1.33815440        8.38691330
C        3.99261970        9.28751690        7.51892690
C        4.86038440       10.24019500        8.40464780
C        3.95176090        0.40910143        5.67933220
C        4.85289670        1.34561100        6.67917700
C        2.20516780        2.17413740        9.27370230
C        3.14190290        3.19752220       10.15545000
C        2.19369880        4.02204700        0.39715005
C        3.09078210        4.86823360        1.35839810
C        3.96759340        2.21495790        0.43049958
C        4.84021810        3.05697640        1.35339170
C        4.08701750        4.01277160        9.33634040
C        4.94461140        4.89401040       10.23399400
C        2.18430410        2.21068160        2.23061080
C        3.14745580        3.09459000        3.15282240
C        2.14159550        3.96781740        3.96035110
C        3.09675170        4.85586090        4.94923320
C        4.00768710        2.14712100        3.99941800
C        4.84893330        3.09415180        4.87235300
C        3.92773580        4.04445880        2.19312660
C        4.78871120        4.86048500        3.07842270
C        2.09250190        2.20075160        5.70871080
C        3.06923280        3.11598680        6.63934280
C        2.22596700        3.99104400        7.65987800
C        3.15253880        4.90374860        8.47218720
C        4.06223330        2.18681720        7.47336910
C        4.84585370        3.13797210        8.39779490
C        4.04089080        3.98538760        5.76003100
C        4.88538930        4.84272720        6.59792370
C        2.24593560        5.79696930        9.28826200
C        3.10379000        6.63926460       10.21981900
C        2.18662660        7.50755470        0.43915314
C        3.08692940        8.47464440        1.28376500
C        3.97256240        5.73023630        0.42225923
C        4.92721300        6.69943580        1.33867970
C        3.98911980        7.50868930        9.22663590
C        4.85716670        8.35857470       10.12698600
C        2.22516880        5.80970500        2.25650420
C        3.20735640        6.66067150        3.08311920
C        2.32419970        7.63351990        3.98331250
C        3.20397540        8.53957280        4.85996340
C        4.05756170        5.71252280        4.09698010
C        4.88849230        6.62516230        4.98524890
C        4.03718110        7.52481620        2.15145460
C        4.89485640        8.40364290        3.11893730
C        2.24322490        5.84005060        5.76952880
C        3.12014460        6.71514340        6.61948560
C        2.22993650        7.55294790        7.56499780
C        3.06027490        8.40127110        8.45632350
C        4.00511470        5.76636000        7.52403320
C        4.95106710        6.65377440        8.35090930
C        4.04535910        7.59780890        5.70943040
C        4.91545410        8.46907440        6.61920740
C        5.83548890        9.32595810        9.24724120
C        6.66692870       10.21659700       10.18317900
C        5.71017530        0.43754771        0.44577634
C        6.67968350        1.39321680        1.36971150
C        7.60209040        9.31933390        0.38994842
C        8.39176390       10.25383800        1.37067770
C        7.55340290        0.48603504        9.28957610
C        8.48327660        1.30749650       10.20636400
C        5.77240200        9.40967430        2.20774690
C        6.67596710       10.27192500        3.10890050
C        5.76278550        0.48896592        3.98319210
C        6.67835660        1.32052180        4.84666020
C        7.54811470        9.33971440        3.95306480
C        8.38270150       10.18878800        4.78219270
C        7.52934390        0.53522398        2.20437530
C        8.40265610        1.30547270        3.13684880
C        5.81204940        9.38727330        5.76504220
C        6.66499900       10.15396100        6.67105850
C        5.76687620        0.41311684        7.61929120
C        6.64279630        1.30945440        8.42276760
C        7.55196630        9.31522510        7.48324420
C        8.40202040       10.26658100        8.40069860
C        7.53277610        0.47545192        5.78101570
C        8.43163000        1.35161780        6.65699510
C        5.76850820        2.24486250        9.38311960
C        6.66998110        3.11341640       10.23983500
C        5.79514200        3.95436530        0.41126807
C        6.65125740        4.93112770        1.42343010
C        7.53262520        2.23476830        0.35869379
C        8.40605880        3.09673630        1.36502340
C        7.48724160        3.97206650        9.30980630
C        8.44661710        4.87547510       10.25643500
C        5.77744980        2.21025090        2.16895830
C        6.53059530        3.14293310        3.19012630
C        7.57339530        2.21454740        4.01925080
C        8.38773400        3.05785400        4.92039020
C        7.44928880        3.98835390        2.31433190
C        8.37707600        4.80889610        3.15510380
C        5.74610840        2.20743050        5.79904510
C        6.63851430        3.18860720        6.66787980
C        5.73416420        4.01743750        7.58134790
C        6.63325050        4.90387590        8.47242050
C        7.54994420        2.22938510        7.54246460
C        8.38753170        3.10134130        8.40545800
C        7.68441810        3.87443410        5.83807290
C        8.38770150        4.86094370        6.64415750
C        5.80433260        5.72152570        9.29327000
C        6.67770880        6.66325080       10.19184400
C        5.78586270        7.57793250        0.42892195
C        6.60948940        8.48587510        1.34413060
C        7.56818190        5.79769330        0.44396363
C        8.50678090        6.71894940        1.30156650
C        7.47871710        7.54957150        9.27803800
C        8.41568730        8.41181240       10.19181100
C        5.72361900        5.77646400        2.26908000
C        6.63943800        6.58781260        3.20510130
C        5.81267150        7.50736570        3.97087240
C        6.68351330        8.47527350        4.82245990
C        7.53675790        5.75803310        3.93911490
C        8.37749580        6.65093550        4.86917500
C        7.55494670        7.52053460        2.20967660
C        8.41008960        8.45856550        3.09316670
C        5.71861490        5.85759180        5.83163000
C        6.66665730        6.61537330        6.63965990
C        5.81908040        7.57464010        7.55066060
C        6.72444120        8.38297690        8.38119540
C        7.47465260        5.72111760        7.62319200
C        8.44245330        6.62355620        8.54524720
C        7.53580850        7.52831290        5.84034120
C        8.40699220        8.38120780        6.71460930
N        5.65199790        3.83949090        3.91712890
