&CONTROL
calculation = 'scf'
restart_mode = 'from_scratch'
verbosity = 'high'
wf_collect = .true.
pseudo_dir='/home/arpank/pseudopotentials/'
tprnfor = .true.
/
&SYSTEM
ibrav = 0
ecutwfc = 60
tot_charge = -1
nspin = 2
tot_magnetization = 2.0
nbnd = 480
nat = 215
ntyp = 2
input_dft = 'PBE0'
exx_fraction = 0.18
ecutfock = 120
/
&ELECTRONS
conv_thr = 1D-8
diago_full_acc=.true.
mixing_beta = 0.3
/
&IONS
ion_dynamics='bfgs'
ion_positions='default'
/
K_POINTS gamma
ATOMIC_SPECIES
C  12.01099968  C_ONCV_PBE-1.0.upf
N  14.00699997  N_ONCV_PBE-1.0.upf
CELL_PARAMETERS angstrom
    10.65000000      0.00000000      0.00000000
     0.00000000     10.65000000      0.00000000
     0.00000000      0.00000000     10.65000000
ATOMIC_POSITIONS angstrom
C        9.24142230        9.32916730        9.30521720
C       10.18497500       10.22027400       10.25587000
C        9.31150870        0.38688410        0.45365734
C       10.24516800        1.27907560        1.40240670
C        0.51018149        9.28364620        0.46205518
C        1.32220860       10.18453100        1.29306860
C        0.41038420        0.46710931        9.25841730
C        1.37604330        1.29753290       10.16306300
C        9.32289550        9.30714390        2.20983570
C       10.18545100       10.15279800        3.08786330
C        9.31256860        0.47583625        3.91355850
C       10.15217900        1.31668590        4.83959550
C        0.37806463        9.31958980        4.00241980
C        1.24300760       10.19731300        4.87692400
C        0.44515872        0.38780888        2.22059980
C        1.33522060        1.33600030        3.06216990
C        9.34105340        9.38499930        5.78260210
C       10.15865600       10.18778200        6.64066670
C        9.27419210        0.47606194        7.48031420
C       10.15912800        1.26700290        8.41549370
C        0.46995696        9.29523790        7.55096970
C        1.31943820       10.21213800        8.37553340
C        0.45111330        0.42142998        5.77670070
C        1.28349620        1.34129540        6.59706820
C        9.34661230        2.23754180        9.33020110
C       10.25203500        3.04801580       10.21080900
C        9.40820860        4.01496100        0.44287222
C       10.20954400        4.88423100        1.39255750
C        0.42882652        2.23325110        0.51412623
C        1.35049920        3.11635860        1.38813300
C        0.38104546        3.94124440        9.32555710
C        1.33624760        4.84242060       10.21599700
C        9.33675300        2.12663940        2.16485050
C       10.18493900        3.05174410        3.09842660
C        9.28909690        3.97505860        3.98172530
C       10.16922200        4.88028880        4.85703870
C        0.39877244        2.17847240        3.98205900
C        1.34851360        3.15065800        4.83643340
C        0.38210908        4.00840260        2.27142560
C        1.31839290        4.94473550        3.12759000
C        9.32543400        2.23072170        5.78507690
C       10.21708700        3.05240710        6.63159440
C        9.31342190        3.91803550        7.61843490
C       10.22621000        4.84423660        8.40414260
C        0.33118358        2.13953070        7.51563220
C        1.35019700        3.01252990        8.36454820
C        0.42003535        4.04495170        5.74104920
C        1.37281960        4.93139070        6.57409590
C        9.32697530        5.78704600        9.33335860
C       10.24278400        6.64748690       10.21514000
C        9.34932670        7.60640290        0.48204738
C       10.21093700        8.46004250        1.25616040
C        0.41331312        5.77130290        0.51679752
C        1.31021180        6.69102550        1.30154440
C        0.51536833        7.57846450        9.31791820
C        1.38557390        8.42198420       10.22996400
C        9.30679420        5.74073630        2.19989440
C       10.26685900        6.65161520        3.14964030
C        9.34291740        7.56546380        4.05354310
C       10.19214300        8.44457280        4.89885290
C        0.44380781        5.79403290        4.00726040
C        1.37598130        6.61745150        4.87205090
C        0.40496804        7.54473370        2.24231010
C        1.31536560        8.44863400        3.03033360
C        9.29628590        5.82107620        5.75337120
C       10.16257600        6.68089450        6.64040140
C        9.31058970        7.55539430        7.50868420
C       10.19660100        8.38244340        8.40151160
C        0.38017734        5.67496610        7.57705970
C        1.27797970        6.60561710        8.50384610
C        0.49611274        7.52328920        5.73862090
C        1.39394250        8.41001450        6.63010580
C        2.24631260        9.35689890        9.32645100
C        3.12826040       10.22613100       10.25336000
C        2.23458850        0.38627501        0.47095104
C        3.06981900        1.34765940        1.38683120
C        4.03604720        9.34819580        0.47910158
C        4.91827970       10.18153000        1.37720240
C        3.91628230        0.41713599        9.31283840
C        4.84920080        1.33321520       10.19038300
C        2.22114010        9.35291880        2.16265850
C        3.03069640       10.15148800        3.09991670
C        2.14376770        0.42473540        4.06085370
C        3.10629030        1.33722680        4.90920200
C        3.95821420        9.27908680        3.98173930
C        4.85777880       10.21057500        4.89129980
C        3.91003610        0.42611717        2.23574900
C        4.80948890        1.30236960        3.09437470
C        2.24961140        9.38321360        5.70341880
C        3.08183970       10.20358800        6.65325160
C        2.23806060        0.45658994        7.54876480
C        3.15448440        1.33640630        8.47447890
C        3.95188200        9.22887380        7.61280450
C        4.97220810       10.25380000        8.46255430
C        4.00230560        0.45291481        5.75404270
C        4.89522790        1.35851510        6.63788590
C        2.23590340        2.13677000        9.33399040
C        3.02699600        3.09842110       10.26228700
C        2.24541810        3.98454710        0.40417037
C        3.17975550        4.84644180        1.33579700
C        3.94696920        2.21158580        0.43837243
C        4.82752210        3.10761710        1.33928520
C        3.97043540        3.98612130        9.32808390
C        4.91956100        4.80888110       10.18556300
C        2.20924820        2.15907890        2.22533480
C        3.07106590        3.12530050        3.04551800
C        2.19580130        3.98061670        3.94451510
C        3.13778270        4.88116850        4.84741140
C        3.92076660        2.22092360        3.93197110
C        4.83418850        3.05027840        4.79399300
C        3.96064590        3.99205430        2.13573410
C        4.86199080        4.93273070        3.07561080
C        2.23066900        2.23841460        5.76972800
C        3.10707250        3.16714530        6.66579980
C        2.19334710        4.00652910        7.59955950
C        3.16003330        4.89459740        8.41395970
C        4.02881840        2.27119270        7.66288570
C        4.79802690        3.12392550        8.40211870
C        4.00500630        3.98103920        5.69114870
C        5.00179460        4.94752280        6.66151250
C        2.24716970        5.79718230        9.37040060
C        3.11787870        6.65069740       10.26786300
C        2.23659120        7.56103700        0.40846116
C        3.12526790        8.43716490        1.29150930
C        4.01508240        5.74472090        0.41330117
C        4.92616580        6.62881690        1.36164600
C        4.04500230        7.55420710        9.34981660
C        4.83174710        8.52521100       10.22782200
C        2.19483470        5.79272270        2.21653910
C        3.14471360        6.63111630        3.04783850
C        2.22410200        7.57697240        3.99048130
C        3.10570220        8.42452870        4.89867080
C        4.01310950        5.74828030        3.89507330
C        4.97787950        6.65862190        4.82835490
C        4.09768330        7.52732970        2.18018920
C        4.87040630        8.42597820        3.09367170
C        2.27447390        5.72609000        5.77266750
C        3.12497610        6.61254910        6.60047170
C        2.21227110        7.57193990        7.58654320
C        3.10381070        8.43957290        8.37571080
C        4.05247740        5.78735570        7.57843620
C        4.87444430        6.71791140        8.45457500
C        4.08207410        7.53174540        5.75300650
C        4.92500000        8.41730780        6.65194710
C        5.71731610        9.32889420        9.30753140
C        6.59566030       10.22543000       10.28298900
C        5.79107180        0.41316161        0.42751009
C        6.54271700        1.30249490        1.31218030
C        7.56657150        9.33467390        0.46536367
C        8.38958000       10.18955900        1.39475040
C        7.50743430        0.46837858        9.31267730
C        8.45705400        1.29668630       10.22803400
C        5.79022080        9.38054930        2.24600070
C        6.61368110       10.29486800        3.08740320
C        5.77801500        0.45646943        3.97834990
C        6.61411130        1.33189540        4.83280980
C        7.57218990        9.35480330        3.97663900
C        8.46232160       10.27083100        4.92671620
C        7.55148300        0.47264960        2.21959100
C        8.40100380        1.34624370        3.07418080
C        5.79884170        9.34727540        5.76408390
C        6.67021010       10.20989700        6.69163490
C        5.81777470        0.57241670        7.53404910
C        6.62401870        1.34588280        8.36238380
C        7.51626800        9.36082710        7.58179510
C        8.43093930       10.28441700        8.46150360
C        7.51974810        0.45249328        5.79841790
C        8.40931740        1.29097510        6.52708620
C        5.72089070        2.25758620        9.30909990
C        6.67782370        3.08282180       10.21569100
C        5.81346630        3.97811160        0.40410258
C        6.70825270        4.92321330        1.30880370
C        7.49542370        2.18153980        0.50764790
C        8.46441580        3.10673030        1.33345330
C        7.52693350        3.98706900        9.30864610
C        8.45032200        4.90309910       10.21417500
C        5.70289560        2.15346490        2.30786450
C        6.62615380        3.10944280        3.10105660
C        7.50415770        2.22208860        3.94929750
C        8.37595490        3.14207240        4.99817990
C        7.53982510        4.01775610        2.16743910
C        8.46079060        4.84269360        3.10140820
C        5.76408480        2.21938540        5.77244440
C        6.62174600        3.13031500        6.67290980
C        5.80725610        4.00616910        7.61565830
C        6.70871130        4.90394910        8.43515050
C        7.58408770        2.18871730        7.51106410
C        8.45515940        3.11574200        8.47033890
C        7.54821950        3.90114640        5.82905470
C        8.37491400        4.89724690        6.70014830
C        5.78862480        5.74621790        9.37104410
C        6.69791180        6.74872590       10.25606200
C        5.84198000        7.56277880        0.42995161
C        6.67922820        8.36848690        1.41044300
C        7.61961620        5.85725610        0.50312899
C        8.49144780        6.75019930        1.31963440
C        7.58345840        7.53076830        9.35400810
C        8.44592740        8.42824870       10.24138600
C        5.81202770        5.78287680        2.22489500
C        6.71274580        6.72130060        3.12997910
C        5.75958820        7.51751350        3.91495570
C        6.63837200        8.49991290        4.87507900
C        7.58561570        5.80427130        3.98361670
C        8.46046340        6.66416650        4.85855500
C        7.55719010        7.52217920        2.21087840
C        8.48761180        8.46254730        3.10602040
C        5.74157270        5.81226870        5.85583110
C        6.70756080        6.62886590        6.66987220
C        5.79862740        7.48374020        7.55186150
C        6.61554730        8.38095840        8.45105270
C        7.56435800        5.73241300        7.56863120
C        8.45090040        6.55681850        8.39015740
C        7.54999850        7.58114220        5.71764590
C        8.39719220        8.51345670        6.70176730
N        5.58117190        3.90210760        3.93849580
