&CONTROL
calculation = 'scf'
restart_mode = 'from_scratch'
verbosity = 'high'
wf_collect = .true.
pseudo_dir='/home/arpank/pseudopotentials/'
tprnfor = .true.
/
&SYSTEM
ibrav = 0
ecutwfc = 60
tot_charge = -1
nspin = 2
tot_magnetization = 2.0
nbnd = 480
nat = 215
ntyp = 2
input_dft = 'PBE0'
exx_fraction = 0.18
ecutfock = 120
/
&ELECTRONS
conv_thr = 1D-8
diago_full_acc=.true.
mixing_beta = 0.3
/
&IONS
ion_dynamics='bfgs'
ion_positions='default'
/
K_POINTS gamma
ATOMIC_SPECIES
C  12.01099968  C_ONCV_PBE-1.0.upf
N  14.00699997  N_ONCV_PBE-1.0.upf
CELL_PARAMETERS angstrom
    10.65000000      0.00000000      0.00000000
     0.00000000     10.65000000      0.00000000
     0.00000000      0.00000000     10.65000000
ATOMIC_POSITIONS angstrom
C        9.25237950        9.30872040        9.37640540
C       10.15089000       10.32693600       10.24253900
C        9.28371660        0.46882149        0.52849860
C       10.22022900        1.31282270        1.40530940
C        0.43651197        9.29816140        0.46661402
C        1.28098210       10.18937400        1.38329430
C        0.49954645        0.47372648        9.33603820
C        1.40785870        1.32218590       10.16453700
C        9.34049320        9.27913760        2.30440510
C       10.17793900       10.24000800        3.21011280
C        9.30380030        0.54188196        3.98086700
C       10.19194500        1.26485240        4.82116520
C        0.38799325        9.30780580        4.03419990
C        1.33669290       10.20639400        4.86913430
C        0.45455993        0.42940421        2.27846860
C        1.33918600        1.34298640        3.13644880
C        9.30588790        9.35665570        5.71878480
C       10.17062600       10.19919500        6.57667930
C        9.24835470        0.43295064        7.54564430
C       10.22303200        1.42926840        8.44403420
C        0.42583742        9.38949160        7.55023160
C        1.33384970       10.21458500        8.40666860
C        0.43967727        0.51641182        5.74644390
C        1.31101540        1.31074250        6.60339420
C        9.32978980        2.27163690        9.39333570
C       10.24235800        3.09807160       10.20647300
C        9.34708760        3.90195280        0.44441450
C       10.22754200        4.84545800        1.28668070
C        0.47215111        2.19631890        0.42642326
C        1.31217480        3.10797580        1.32288080
C        0.45950740        4.05800500        9.35265550
C        1.29084150        4.89717360       10.18570100
C        9.30150850        2.19124990        2.17779690
C       10.19780500        3.16775640        3.12144050
C        9.31075250        3.95495080        3.91439790
C       10.21679700        4.82617220        4.86159910
C        0.46077699        2.22597700        3.91616520
C        1.35814380        3.09636500        4.84460330
C        0.42279903        4.00182810        2.21757720
C        1.32905790        4.84796740        3.10276370
C        9.29384400        2.16548680        5.73272020
C       10.18945700        3.09794570        6.65832970
C        9.28975910        4.01872320        7.56338620
C       10.22307600        4.82577240        8.40151950
C        0.39080471        2.22261370        7.48737430
C        1.38898820        3.11833550        8.45006410
C        0.46007130        4.01077080        5.76400830
C        1.31939450        4.77400590        6.65417430
C        9.31874800        5.74440050        9.36516630
C       10.19170900        6.74835170       10.20646600
C        9.25263050        7.55964650        0.51700752
C       10.25056900        8.36799350        1.33177680
C        0.39603449        5.73191490        0.40931166
C        1.35846560        6.63647840        1.33206820
C        0.47129554        7.59543320        9.32256540
C        1.33005370        8.37450410       10.23121500
C        9.35147780        5.76547770        2.20333220
C       10.16356100        6.62401700        2.96811290
C        9.35889660        7.57845800        3.99806770
C       10.21781000        8.42427230        4.85294840
C        0.48001204        5.80425210        3.96363070
C        1.30931710        6.61943900        4.89733100
C        0.47314898        7.55051230        2.25727250
C        1.36080410        8.45377250        3.15738930
C        9.33272710        5.83954550        5.76314940
C       10.16364300        6.69682630        6.70919660
C        9.38207470        7.56020590        7.52534420
C       10.18335200        8.50234830        8.41544340
C        0.45858751        5.79178300        7.60540730
C        1.31243570        6.71846890        8.46889730
C        0.45448865        7.57653910        5.80713100
C        1.29998140        8.38494010        6.64240300
C        2.15528230        9.27540290        9.38168180
C        3.06309830       10.11672600       10.21566600
C        2.15926600        0.42820750        0.52670394
C        3.06435220        1.36451840        1.36058470
C        3.99496270        9.27227100        0.44682025
C        4.94461420       10.20574700        1.33887940
C        3.96432110        0.45793943        9.35750230
C        4.82876090        1.34977990       10.23792100
C        2.24443190        9.30002670        2.28407230
C        3.02505270       10.18201200        3.11391210
C        2.22521820        0.41789496        4.00099010
C        3.11220180        1.28608640        4.88046520
C        3.95708230        9.23885750        4.00159280
C        4.83632160       10.24037600        4.85305960
C        4.03370330        0.37529423        2.24621130
C        4.94708310        1.34360600        3.14952060
C        2.15530000        9.36187380        5.77109380
C        3.10847950       10.22108400        6.59092410
C        2.31359590        0.45018946        7.50219740
C        3.19143070        1.32448980        8.39090460
C        3.97914230        9.25994170        7.53801120
C        4.92247330       10.22741100        8.44102980
C        4.05679590        0.39092885        5.73060910
C        4.85041160        1.33757740        6.67855800
C        2.27417060        2.17198440        9.25959590
C        3.05409310        3.13713170       10.19977000
C        2.16317930        4.07673220        0.43084895
C        3.08305600        4.84800410        1.28260020
C        3.93858530        2.20267430        0.53238996
C        4.86542100        3.07535050        1.32913690
C        4.00497930        3.96062950        9.26249220
C        4.92885490        4.90833690       10.16826300
C        2.26616540        2.20261530        2.31036640
C        3.10196760        3.09298580        3.07892690
C        2.21118260        4.01699560        3.97203680
C        3.09792600        4.88947570        4.83102660
C        3.96611130        2.17122090        3.98138190
C        4.83590610        3.12296440        4.89372000
C        3.96876160        3.93338520        2.23968670
C        4.94337780        4.83593410        3.09184110
C        2.18079730        2.21270070        5.74461070
C        3.11187410        3.08836410        6.62364220
C        2.19104370        3.96440410        7.52240530
C        3.12761760        4.90314870        8.31511810
C        3.91926200        2.21391550        7.49599830
C        4.84834290        3.04988650        8.38308440
C        3.95648150        4.02414920        5.74042640
C        4.81799290        4.93588190        6.53989880
C        2.21278620        5.81038190        9.22175830
C        3.17732660        6.65699660       10.18712600
C        2.19642620        7.56236220        0.50220137
C        3.19026440        8.39284990        1.32822840
C        3.97041590        5.76472730        0.48697057
C        4.96961850        6.59349770        1.43415190
C        3.93957030        7.48335890        9.38297610
C        4.89543080        8.41702930       10.23279000
C        2.23678820        5.74749390        2.13627300
C        3.11787390        6.63124020        3.14748440
C        2.25720290        7.55218930        3.97082310
C        3.11450080        8.36658840        4.90061290
C        4.00777640        5.72486920        3.99974520
C        4.92942620        6.59908030        4.83836530
C        3.99012690        7.53131400        2.23691700
C        4.89293240        8.45880660        3.08775410
C        2.29421260        5.75889160        5.74323270
C        3.11348870        6.69993160        6.59476000
C        2.22787000        7.55234390        7.57955830
C        3.03451250        8.41497190        8.47224150
C        3.95409530        5.82662810        7.48348810
C        4.84131850        6.72626560        8.45621860
C        3.96333120        7.53420530        5.72799370
C        4.90711590        8.43949970        6.63536510
C        5.84870290        9.37192850        9.31812520
C        6.65599580       10.23233000       10.21539400
C        5.84178070        0.41811439        0.41441264
C        6.64678200        1.28599750        1.33836430
C        7.57772030        9.32114570        0.48033312
C        8.48476180       10.21832400        1.36648990
C        7.51477570        0.39694339        9.35353720
C        8.43437410        1.36736560       10.24155200
C        5.82456330        9.33676400        2.27819480
C        6.69102030       10.17127000        3.19574330
C        5.78004520        0.45804743        4.05699430
C        6.61643140        1.39268090        4.84472200
C        7.51763090        9.34555450        3.98808440
C        8.45568480       10.20980300        4.82730770
C        7.50696820        0.44954975        2.24606990
C        8.44681760        1.33072010        3.14788010
C        5.74678320        9.33020620        5.75202070
C        6.69831690       10.19154800        6.60329240
C        5.79777000        0.46948584        7.59890880
C        6.63315100        1.37966850        8.46115670
C        7.60780710        9.35834660        7.54316420
C        8.44292010       10.18776700        8.46368810
C        7.47423850        0.48361701        5.77680410
C        8.39719600        1.36055340        6.62114430
C        5.68796460        2.20083500        9.25339170
C        6.60966650        3.07487720       10.14024300
C        5.74886860        4.04310850        0.43863355
C        6.63505720        4.90266610        1.26565230
C        7.51325610        2.12166640        0.46503666
C        8.38917700        3.10475930        1.38963790
C        7.55038680        4.01992300        9.29010820
C        8.46565140        4.83747330       10.18045800
C        5.75907010        2.25460620        2.21956800
C        6.55362640        3.10678510        3.08068960
C        7.60817010        2.22466630        3.98462090
C        8.44233660        3.15545690        4.92521960
C        7.46880510        3.97669850        2.16404430
C        8.47491970        4.90004280        3.11684130
C        5.79830880        2.33066250        5.74217480
C        6.69114790        3.17476600        6.64795570
C        5.73007470        3.97150760        7.49932520
C        6.62432750        4.89464050        8.39375700
C        7.59764500        2.18534820        7.62559640
C        8.39860670        3.21351040        8.46532230
C        7.62341630        3.98920350        5.79025060
C        8.47255090        4.99891790        6.64607830
C        5.74228250        5.81966320        9.32532900
C        6.69536220        6.61450900       10.19029300
C        5.74766470        7.53199130        0.48447592
C        6.67661660        8.40959580        1.30816310
C        7.56184410        5.69752540        0.45468767
C        8.42906810        6.59123700        1.34796110
C        7.53925550        7.51835390        9.33952130
C        8.45920820        8.39997210       10.24055300
C        5.88639510        5.69260820        2.24023230
C        6.71621270        6.62207270        3.16319070
C        5.81072960        7.51074830        3.96093320
C        6.70733890        8.40928890        4.84230590
C        7.66575190        5.76768400        3.97774340
C        8.42061260        6.64774640        4.89236740
C        7.54163580        7.52674320        2.16253500
C        8.45480850        8.44629260        3.11812070
C        5.75442080        5.88906730        5.75770870
C        6.58916210        6.64185720        6.68180190
C        5.82576920        7.54678130        7.56529980
C        6.65228900        8.41636440        8.40727840
C        7.51243980        5.82188040        7.51811200
C        8.37603710        6.67529920        8.47380660
C        7.46163200        7.55510410        5.79737860
C        8.47708560        8.46695780        6.64330880
N        5.69712410        3.90218200        3.93913510
