&CONTROL
calculation = 'scf'
restart_mode = 'from_scratch'
verbosity = 'high'
wf_collect = .true.
pseudo_dir='/home/arpank/pseudopotentials/'
tprnfor = .true.
/
&SYSTEM
ibrav = 0
ecutwfc = 60
tot_charge = -1
nspin = 2
tot_magnetization = 2.0
nbnd = 480
nat = 215
ntyp = 2
input_dft = 'PBE0'
exx_fraction = 0.18
ecutfock = 120
/
&ELECTRONS
conv_thr = 1D-8
diago_full_acc=.true.
mixing_beta = 0.3
/
&IONS
ion_dynamics='bfgs'
ion_positions='default'
/
K_POINTS gamma
ATOMIC_SPECIES
C  12.01099968  C_ONCV_PBE-1.0.upf
N  14.00699997  N_ONCV_PBE-1.0.upf
CELL_PARAMETERS angstrom
    10.65000000      0.00000000      0.00000000
     0.00000000     10.65000000      0.00000000
     0.00000000      0.00000000     10.65000000
ATOMIC_POSITIONS angstrom
C        9.35602800        9.28581220        9.28868570
C       10.17033100       10.16145900       10.24988100
C        9.32936410        0.41726775        0.41148794
C       10.16457100        1.36407340        1.33406520
C        0.45162710        9.34684850        0.42143867
C        1.32166550       10.22073800        1.33947050
C        0.44880500        0.42742149        9.42739370
C        1.33550820        1.31929760       10.19444000
C        9.34290740        9.32656420        2.17464480
C       10.21998000       10.29073800        3.11428010
C        9.35185880        0.43330630        4.04805480
C       10.19446300        1.38909620        4.85332640
C        0.41531445        9.26647880        3.99849290
C        1.33775620       10.20163300        4.83099840
C        0.44663572        0.38972718        2.22793410
C        1.28479300        1.31033890        3.18908560
C        9.28001720        9.30479730        5.85492120
C       10.20375100       10.11954300        6.65149960
C        9.39990000        0.45879593        7.53728090
C       10.16456400        1.31119970        8.44639200
C        0.40633143        9.38450950        7.57823770
C        1.31134240       10.21931000        8.46001300
C        0.45945931        0.46011017        5.69112140
C        1.28893830        1.34388080        6.63660640
C        9.29965010        2.19950990        9.34339730
C       10.23385500        3.03162500       10.24203900
C        9.23645520        3.93676900        0.40299483
C       10.15575900        4.94317810        1.28892060
C        0.44504670        2.28820480        0.43397079
C        1.35287850        3.02750150        1.30245780
C        0.39613292        4.00510060        9.40229370
C        1.28026590        4.89238710       10.20302200
C        9.28378620        2.13663440        2.19476300
C       10.15705700        3.13914770        3.08001140
C        9.30006120        3.98054630        3.96497650
C       10.22504800        4.79597490        4.87861570
C        0.42003070        2.23253280        4.01589480
C        1.37394630        3.16550960        4.88140530
C        0.42466337        4.06051190        2.21424040
C        1.35620510        4.88456310        3.22801170
C        9.38255740        2.25986540        5.79767010
C       10.19133600        3.10803350        6.66730410
C        9.33728470        4.06022280        7.54231180
C       10.26345600        4.85403430        8.44104870
C        0.43035115        2.23531560        7.58593710
C        1.24918920        3.06912010        8.50300120
C        0.47394080        3.97111900        5.69356840
C        1.33470430        4.88257270        6.66449780
C        9.26744100        5.74731070        9.30200510
C       10.13892700        6.63599160       10.20996000
C        9.38041220        7.53020820        0.43060069
C       10.26487800        8.42322290        1.30699720
C        0.41999239        5.84119020        0.43960571
C        1.36552750        6.76359930        1.34373410
C        0.39831272        7.55397230        9.29700570
C        1.33895420        8.42620850       10.20602000
C        9.33428840        5.83695080        2.28939200
C       10.21171400        6.63504420        3.15642940
C        9.35813110        7.53074200        4.00602800
C       10.18244100        8.46028920        4.86045580
C        0.45215024        5.75041950        4.01326420
C        1.32236320        6.65083430        4.86847570
C        0.35724916        7.63423590        2.25234320
C        1.35600860        8.42421790        3.09800810
C        9.39756310        5.76282690        5.81778790
C       10.21955800        6.56918930        6.69710040
C        9.28056300        7.52630270        7.60570280
C       10.17094500        8.41483820        8.44560100
C        0.46337100        5.83204340        7.56318320
C        1.32534040        6.63776150        8.42438690
C        0.41983052        7.54158880        5.72646120
C        1.26959410        8.43123650        6.64737150
C        2.21865700        9.29381460        9.26197780
C        3.10862170       10.23126300       10.17172000
C        2.16489230        0.47258324        0.39363239
C        3.05128050        1.31923890        1.38603860
C        3.98683340        9.34557670        0.37995505
C        4.87779110       10.17289100        1.30415950
C        4.03778110        0.52906313        9.32640920
C        4.86779140        1.43090720       10.16807000
C        2.24406150        9.29329290        2.18313480
C        3.07618040       10.18329300        3.08300710
C        2.23464860        0.43284905        3.97043740
C        3.08673070        1.32214300        4.88013190
C        4.09954070        9.26657010        4.00531320
C        4.92637980       10.21468900        4.91171100
C        3.93735010        0.39988994        2.29178320
C        4.85714670        1.26518550        3.04453960
C        2.13985840        9.32058510        5.70354370
C        3.04996400       10.17710500        6.65556820
C        2.20873090        0.40035158        7.57505100
C        3.12572460        1.29560580        8.39870590
C        4.05751410        9.29917390        7.49212940
C        4.86819630       10.29794800        8.39183980
C        4.00261970        0.47747897        5.83471550
C        4.87092670        1.30768210        6.64679060
C        2.16716890        2.25664230        9.29958690
C        3.04062870        3.15236200       10.15224100
C        2.14648260        4.00602430        0.43869880
C        3.09118870        4.93818720        1.27548520
C        3.95604160        2.32257730        0.47470753
C        4.85843250        3.12476840        1.28412730
C        3.96606880        3.98504110        9.33479900
C        4.85734310        4.91057870       10.22630000
C        2.17492210        2.18945000        2.24522170
C        3.09827990        3.08332330        3.02689510
C        2.24854690        3.98966360        4.04978600
C        3.08777320        4.88737720        4.82837060
C        4.03495240        2.13427410        3.99790710
C        4.93731050        3.13868320        4.88886390
C        3.90705840        3.97390600        2.17606770
C        4.89123000        4.85242660        3.10470080
C        2.28955820        2.23821680        5.77028670
C        3.14520790        3.14157540        6.61960870
C        2.25868140        3.96901720        7.56434270
C        3.06529950        4.88202380        8.44283780
C        3.96456290        2.28022810        7.53795200
C        4.93120590        3.10163310        8.47539120
C        4.00879420        3.95052010        5.71345420
C        4.92232420        4.87305880        6.63742680
C        2.24827040        5.74911730        9.34485280
C        3.05879050        6.64399610       10.21138400
C        2.18712090        7.56986100        0.44865828
C        3.15646230        8.41148060        1.31194710
C        3.98854850        5.80728710        0.45162591
C        4.87886770        6.65744250        1.34732990
C        3.93412750        7.57125420        9.32481620
C        4.88048230        8.46025890       10.13590300
C        2.21895270        5.82803610        2.24769090
C        3.13620470        6.69694260        3.07356180
C        2.22702170        7.56432400        4.05661050
C        3.11444610        8.46215430        4.89287930
C        4.01507360        5.76458560        3.99304590
C        4.91148110        6.72038790        4.88235750
C        4.00050780        7.62871470        2.27133890
C        4.92681290        8.51847340        3.06119260
C        2.20177140        5.74449240        5.70296850
C        3.12766050        6.65830600        6.65492590
C        2.22728040        7.58272880        7.51472730
C        3.08988150        8.41839460        8.41200830
C        4.00086410        5.79796460        7.60734020
C        4.86903410        6.69892020        8.40563090
C        4.02230720        7.48983860        5.77269080
C        4.92697470        8.49447510        6.57806550
C        5.71331560        9.37009970        9.25641100
C        6.64983310       10.13867200       10.20325700
C        5.70762900        0.41813267        0.42931780
C        6.66988830        1.25911930        1.35666690
C        7.54041280        9.33509070        0.40704894
C        8.38996490       10.24010200        1.27295200
C        7.48189130        0.35914757        9.38166770
C        8.41237030        1.24208870       10.28688000
C        5.77253710        9.30581540        2.12694040
C        6.63940720       10.21209900        3.15899170
C        5.82338550        0.39809831        3.95803580
C        6.64768420        1.30017610        4.84278240
C        7.59104620        9.38043990        3.95556200
C        8.46411430       10.20194300        4.85778180
C        7.48229440        0.42087505        2.22442480
C        8.53416130        1.28714540        3.08668950
C        5.82563670        9.30677060        5.73568280
C        6.64733860       10.17619800        6.67426110
C        5.77255940        0.49140211        7.54435580
C        6.63593320        1.30451880        8.48768610
C        7.60779700        9.30832490        7.52867010
C        8.48957950       10.17527200        8.39003130
C        7.57157450        0.41362298        5.77156210
C        8.43153000        1.30117050        6.61606810
C        5.76305410        2.26291750        9.36892260
C        6.63984180        3.07778350       10.26892600
C        5.78163080        3.89403350        0.49758585
C        6.70820040        4.82359040        1.43422320
C        7.51518520        2.19169530        0.55107196
C        8.43861060        3.09249160        1.38550330
C        7.57055520        4.00837170        9.28090060
C        8.38669950        4.88467150       10.20876200
C        5.73152690        2.21387630        2.20713160
C        6.61928300        3.04098540        3.13699920
C        7.55266660        2.19526740        3.92611850
C        8.44527560        3.08185340        4.77194230
C        7.62150990        4.00135390        2.27664030
C        8.38241560        4.90420840        3.16345510
C        5.77463320        2.21044960        5.73842200
C        6.70724100        3.07085220        6.68377680
C        5.73688680        3.96624450        7.53896250
C        6.70906980        4.91402100        8.36086950
C        7.56215390        2.18735590        7.58952550
C        8.47370210        3.09329420        8.42760400
C        7.63583200        3.98386440        5.83200320
C        8.46669100        4.89499320        6.64178680
C        5.79956600        5.76495430        9.31690590
C        6.63630800        6.61010320       10.16313200
C        5.78617870        7.57908030        0.42000788
C        6.68597040        8.45587960        1.31823750
C        7.54729650        5.78232860        0.46539836
C        8.36532740        6.69891290        1.33219600
C        7.50249530        7.48674070        9.32389350
C        8.42155030        8.41421310       10.19639700
C        5.83429220        5.80025140        2.25546570
C        6.73656400        6.78589960        3.16743530
C        5.72856900        7.52810410        4.01573010
C        6.70620810        8.36848980        4.89071050
C        7.60271990        5.89184590        4.01716400
C        8.37465670        6.59609770        4.88240900
C        7.62338840        7.59191450        2.18481070
C        8.45418990        8.55766880        3.08684060
C        5.77934810        5.82938960        5.84470740
C        6.65404600        6.66736650        6.69103470
C        5.78686370        7.54139680        7.58077880
C        6.62258220        8.39489420        8.43162480
C        7.55675330        5.70303040        7.54053450
C        8.38850540        6.59705590        8.41815550
C        7.58208870        7.53691280        5.73766820
C        8.42937210        8.33640260        6.65020920
N        5.72405640        3.91391860        3.87743090
