&CONTROL
calculation = 'scf'
restart_mode = 'from_scratch'
verbosity = 'high'
wf_collect = .true.
pseudo_dir='/home/arpank/pseudopotentials/'
tprnfor = .true.
/
&SYSTEM
ibrav = 0
ecutwfc = 60
tot_charge = -1
nspin = 2
tot_magnetization = 2.0
nbnd = 480
nat = 215
ntyp = 2
input_dft = 'PBE0'
exx_fraction = 0.18
ecutfock = 120
/
&ELECTRONS
conv_thr = 1D-8
diago_full_acc=.true.
mixing_beta = 0.3
/
&IONS
ion_dynamics='bfgs'
ion_positions='default'
/
K_POINTS gamma
ATOMIC_SPECIES
C  12.01099968  C_ONCV_PBE-1.0.upf
N  14.00699997  N_ONCV_PBE-1.0.upf
CELL_PARAMETERS angstrom
    10.65000000      0.00000000      0.00000000
     0.00000000     10.65000000      0.00000000
     0.00000000      0.00000000     10.65000000
ATOMIC_POSITIONS angstrom
C        9.25579290        9.36382800        9.30808660
C       10.14488500       10.20683000       10.22802100
C        9.30446700        0.47137481        0.42075775
C       10.17956900        1.29995080        1.31862390
C        0.36809142        9.34300090        0.51323462
C        1.36428720       10.23162400        1.30148430
C        0.47363919        0.44271860        9.30508610
C        1.32816150        1.40649230       10.17608000
C        9.27186620        9.27438270        2.17428700
C       10.22391300       10.20817400        3.09531960
C        9.26560900        0.39834385        3.96571890
C       10.21650200        1.35001470        4.83283580
C        0.52089241        9.33276020        3.92853940
C        1.31130720       10.24311500        4.86385390
C        0.42072665        0.38533395        2.18590970
C        1.29886410        1.34114850        3.16256780
C        9.34180340        9.32912390        5.69764240
C       10.22065600       10.21965500        6.58354500
C        9.32966540        0.44197616        7.56651730
C       10.23454400        1.31055960        8.37359900
C        0.44967808        9.33487140        7.58882150
C        1.35859380       10.21678400        8.46288770
C        0.41924207        0.40714525        5.70864020
C        1.31989600        1.33017670        6.64019230
C        9.29844250        2.22071640        9.32621860
C       10.23478000        3.05903300       10.22217100
C        9.29247870        3.96615110        0.43104435
C       10.14770400        4.94318020        1.27322330
C        0.44661802        2.17684830        0.47378076
C        1.32238220        3.11609480        1.33869770
C        0.42431618        4.05045820        9.25421750
C        1.28311530        4.84342630       10.20237200
C        9.25393080        2.25623660        2.22798280
C       10.17213900        3.14422410        3.13187210
C        9.34894620        4.04351720        3.96832970
C       10.22092500        4.89594540        4.85658630
C        0.39166324        2.23030800        4.04128610
C        1.30165300        3.12266910        4.87766430
C        0.46850977        4.08329040        2.24864120
C        1.36537360        4.90040630        3.18952900
C        9.34675340        2.11439240        5.72797260
C       10.20190100        3.16430560        6.73646330
C        9.27190920        4.00737080        7.50648160
C       10.19556300        4.95131160        8.37183860
C        0.45183195        2.18348790        7.51959710
C        1.38319610        3.12760670        8.39429350
C        0.44340509        4.03582430        5.82068320
C        1.36855080        4.87814330        6.68478960
C        9.28212790        5.79970160        9.30966190
C       10.21260800        6.63598870       10.21415200
C        9.30458640        7.59857300        0.49819426
C       10.17627100        8.36192660        1.32498650
C        0.40844100        5.82940860        0.49607968
C        1.36708410        6.64445970        1.41663360
C        0.41856364        7.47244930        9.32888140
C        1.23869640        8.51826410       10.22127100
C        9.36353450        5.78424020        2.21443110
C       10.16983900        6.67253720        3.04478910
C        9.35660890        7.60347810        4.06651110
C       10.32117000        8.45006940        4.92929360
C        0.41463486        5.82546820        3.97003530
C        1.29714650        6.63921750        4.93740080
C        0.52387411        7.59121220        2.24683350
C        1.32503370        8.46744410        3.08753160
C        9.32494800        5.80700070        5.74690050
C       10.21939900        6.70751810        6.64281750
C        9.35416440        7.59513730        7.55846990
C       10.22527400        8.42926330        8.42783130
C        0.48011453        5.79220660        7.47975420
C        1.32327300        6.57044790        8.40186420
C        0.52079056        7.62521310        5.81039750
C        1.42134990        8.41740280        6.66016570
C        2.23599870        9.26645460        9.35767520
C        3.09888840       10.16986200       10.21330800
C        2.12021290        0.43351487        0.38197017
C        3.08240520        1.32806420        1.31365900
C        4.02097800        9.32085160        0.42441494
C        4.84359300       10.17794900        1.29991620
C        3.99847700        0.43203462        9.27454990
C        4.88560780        1.35909840       10.19009200
C        2.19026150        9.30220580        2.25200190
C        3.12144050       10.23563400        3.07536350
C        2.22765740        0.45829326        3.93967690
C        3.21693050        1.33791830        4.81307010
C        3.99872370        9.30715430        3.91032270
C        4.90745850       10.18987700        4.91817370
C        3.99258490        0.33102768        2.12756370
C        4.87704650        1.27872430        3.01784770
C        2.21210740        9.32217160        5.73718950
C        3.10294760       10.16406500        6.63266230
C        2.25517730        0.46846135        7.54558950
C        3.04667600        1.30362570        8.43196940
C        3.97406240        9.25847860        7.51781630
C        4.86617570       10.20814600        8.42630520
C        4.01574710        0.44588388        5.73234610
C        4.83083480        1.37328410        6.63199040
C        2.16638220        2.15346590        9.36041600
C        3.06232590        3.05133840       10.21680700
C        2.17157780        3.95221710        0.45314568
C        3.04560400        4.84960700        1.30923180
C        3.97380070        2.24048170        0.41199263
C        4.85117340        3.12699780        1.30909470
C        3.97665610        3.96483520        9.37157630
C        4.88888100        4.93085760       10.23372800
C        2.18881640        2.27691120        2.24578750
C        3.09286930        3.12382440        3.09228620
C        2.26520880        4.06502960        4.01241360
C        3.15585810        4.88410390        4.86629560
C        4.06014880        2.22149980        3.97822880
C        4.82929340        3.11125130        4.87749770
C        4.00574410        4.01069050        2.18832740
C        4.89886970        4.83887100        3.12275290
C        2.24559560        2.18152540        5.78227420
C        3.13252930        3.08697820        6.59944300
C        2.23452570        4.01491150        7.56390010
C        3.13568790        4.90530040        8.45540810
C        3.97567020        2.19207770        7.58433040
C        4.90043670        3.06304870        8.50287250
C        4.03582220        3.97171710        5.80546420
C        4.92798700        4.91730100        6.66046780
C        2.22514500        5.76999230        9.30878240
C        3.17567900        6.66551160       10.22620100
C        2.15397440        7.61153290        0.47928644
C        3.18571210        8.39475300        1.29799470
C        3.92976940        5.81329420        0.47567759
C        4.91769110        6.65209880        1.33581930
C        4.05548700        7.56975680        9.31507860
C        4.90127310        8.40171800       10.21779600
C        2.21845730        5.74853740        2.24416020
C        3.20088050        6.59845690        3.16170000
C        2.22428780        7.65225950        3.97385020
C        3.11511180        8.48910060        4.83685400
C        4.05065730        5.73635980        4.03984100
C        4.94795320        6.64270840        4.87917350
C        4.04288630        7.52874680        2.19218890
C        4.92987620        8.50990860        3.09188680
C        2.23286560        5.72155950        5.75402870
C        3.10307890        6.59207790        6.65066330
C        2.17083690        7.52000020        7.56057580
C        3.08450820        8.37081330        8.46155200
C        4.05709900        5.69648880        7.56140740
C        4.93998280        6.72183550        8.44502100
C        3.99504750        7.48899350        5.80346080
C        4.85556590        8.38338490        6.67285870
C        5.79448570        9.25028280        9.26706620
C        6.56413920       10.24502700       10.20490400
C        5.78952170        0.37993374        0.45251697
C        6.60746050        1.31596060        1.30217200
C        7.45523310        9.38765220        0.43113017
C        8.42020250       10.21437600        1.34820420
C        7.47876770        0.49811812        9.24639120
C        8.37777420        1.30524770       10.21528100
C        5.78349430        9.35327360        2.22315190
C        6.72114090       10.19671100        3.14342530
C        5.76182900        0.44440743        4.02192260
C        6.63532300        1.33720910        4.96399540
C        7.50178550        9.29844200        4.06830990
C        8.44109880       10.18676600        4.81682130
C        7.53559040        0.39263554        2.26071500
C        8.36358380        1.30282800        3.06948390
C        5.72889170        9.20544090        5.76872150
C        6.62422620       10.07097200        6.66252060
C        5.75918680        0.40352086        7.56681250
C        6.63627290        1.32969410        8.41177240
C        7.52025850        9.34889260        7.56866730
C        8.50571060       10.21241100        8.48294360
C        7.60066310        0.37283704        5.78028090
C        8.46518650        1.23879090        6.69154570
C        5.74282910        2.19158540        9.36362830
C        6.60858400        3.08808680       10.26424600
C        5.73770350        4.06245770        0.46821682
C        6.59830360        4.92214740        1.36364370
C        7.59311350        2.24439020        0.43097368
C        8.38872880        3.09480960        1.36475850
C        7.49697600        4.05359900        9.28393320
C        8.35202350        4.80277840       10.17071900
C        5.84749700        2.21554740        2.18986820
C        6.65697300        3.06202860        3.07655620
C        7.49628040        2.22113610        4.02031310
C        8.44215430        3.10304430        4.89521830
C        7.48949990        3.98823850        2.26368980
C        8.36901970        4.87371910        3.15847630
C        5.80896740        2.22988980        5.70508030
C        6.70354510        3.02544750        6.63739880
C        5.79540470        3.95348790        7.54894230
C        6.64364550        4.85402990        8.41019290
C        7.50840740        2.26129060        7.47903590
C        8.38142430        3.15672480        8.45160420
C        7.52814730        4.03589030        5.84072120
C        8.48212070        4.89579350        6.67674400
C        5.81351520        5.72286340        9.30827250
C        6.67933880        6.64118420       10.13842100
C        5.78707850        7.55231250        0.46198737
C        6.65163750        8.51608370        1.36960180
C        7.53033780        5.76021010        0.43494235
C        8.36242040        6.65973680        1.34496450
C        7.62334410        7.54895030        9.30680170
C        8.42007350        8.44974150       10.17718600
C        5.77102060        5.76338450        2.24856500
C        6.67421130        6.69322230        3.06632940
C        5.80860360        7.53765710        4.00967290
C        6.65668710        8.40518570        5.02031080
C        7.58775290        5.81595980        4.04119590
C        8.46527030        6.66741190        4.92901390
C        7.53460040        7.58684370        2.22286760
C        8.49737000        8.44553740        3.15613490
C        5.77712390        5.83117590        5.90365880
C        6.65329010        6.63949680        6.73017950
C        5.78303040        7.52669590        7.52518470
C        6.63024780        8.41328930        8.35936280
C        7.58093280        5.83982190        7.50983820
C        8.48263320        6.64753070        8.40373640
C        7.49712700        7.57821840        5.73865740
C        8.41332310        8.43518030        6.55764490
N        5.74295690        3.88565500        3.90325030
