&CONTROL
calculation = 'scf'
restart_mode = 'from_scratch'
verbosity = 'high'
wf_collect = .true.
pseudo_dir='/home/arpank/pseudopotentials/'
tprnfor = .true.
/
&SYSTEM
ibrav = 0
ecutwfc = 60
tot_charge = -1
nspin = 2
tot_magnetization = 2.0
nbnd = 480
nat = 215
ntyp = 2
input_dft = 'PBE0'
exx_fraction = 0.18
ecutfock = 120
/
&ELECTRONS
conv_thr = 1D-8
diago_full_acc=.true.
mixing_beta = 0.3
/
&IONS
ion_dynamics='bfgs'
ion_positions='default'
/
K_POINTS gamma
ATOMIC_SPECIES
C  12.01099968  C_ONCV_PBE-1.0.upf
N  14.00699997  N_ONCV_PBE-1.0.upf
CELL_PARAMETERS angstrom
    10.65000000      0.00000000      0.00000000
     0.00000000     10.65000000      0.00000000
     0.00000000      0.00000000     10.65000000
ATOMIC_POSITIONS angstrom
C        9.30957100        9.32384990        9.26607000
C       10.27302800       10.25166200       10.16707600
C        9.42129280        0.47012030        0.43535072
C       10.22750800        1.34409600        1.33966980
C        0.47223810        9.39674490        0.39545855
C        1.31740470       10.20138500        1.39628100
C        0.50569080        0.50135363        9.30136740
C        1.34625320        1.35367650       10.18817700
C        9.27933850        9.25682440        2.21503480
C       10.20317000       10.17063300        3.05046330
C        9.31187110        0.45573192        3.94177670
C       10.20118500        1.28624690        4.86549530
C        0.45254895        9.34296700        4.08916550
C        1.27943040       10.24562200        4.83760070
C        0.38167115        0.45755107        2.24126720
C        1.29908420        1.34750990        3.06849900
C        9.29855940        9.27870500        5.78536810
C       10.23617200       10.22622300        6.68432310
C        9.28428590        0.48920428        7.57180240
C       10.22507600        1.41167650        8.43735220
C        0.46921472        9.37342500        7.48377390
C        1.35704650       10.22242400        8.35418860
C        0.43789034        0.45137539        5.77097080
C        1.35632370        1.37275410        6.61111800
C        9.27070330        2.13856190        9.32129350
C       10.21523600        3.14151560       10.13996400
C        9.33223370        3.98260400        0.38452402
C       10.21209100        4.90253010        1.35724750
C        0.42142632        2.25033670        0.40792079
C        1.32690940        3.03228530        1.37287040
C        0.43713189        3.94769810        9.28175530
C        1.36716640        4.93490760       10.22142500
C        9.30157480        2.21922790        2.20992860
C       10.16658400        3.10426330        3.18965010
C        9.26859380        4.02220730        3.94504040
C       10.26134500        4.89755430        4.90970580
C        0.37987929        2.24282250        3.91591970
C        1.28579570        3.15384560        4.89036790
C        0.44373903        3.95606860        2.23705980
C        1.34370610        4.88601210        3.10320320
C        9.24060700        2.21361200        5.76651600
C       10.19958300        3.12609350        6.62919080
C        9.28210050        3.99500090        7.54931380
C       10.22001600        4.81270040        8.49756660
C        0.51425777        2.21890050        7.52003310
C        1.39896210        3.14171910        8.44658610
C        0.43658492        3.99120300        5.74771930
C        1.31160780        4.87273730        6.67945170
C        9.34307200        5.75686470        9.35039050
C       10.20633600        6.67093530       10.18125600
C        9.29114720        7.56637710        0.45348482
C       10.27438000        8.46564160        1.36571540
C        0.38234145        5.75768080        0.46943496
C        1.35088170        6.60191600        1.32572250
C        0.41493834        7.57311790        9.28147130
C        1.37324940        8.46193360       10.17995800
C        9.33037610        5.74935430        2.23514320
C       10.20604200        6.65731890        3.07169740
C        9.27423050        7.58490010        3.93002290
C       10.21066000        8.46473640        4.89579800
C        0.44974665        5.83070340        4.00118210
C        1.37777800        6.61242260        4.82734420
C        0.44605293        7.46745930        2.23956170
C        1.28321680        8.39216400        3.15283000
C        9.30514880        5.80106100        5.69418360
C       10.26203200        6.63231240        6.60686910
C        9.41227450        7.61657120        7.53936790
C       10.26638900        8.49107840        8.40032590
C        0.47966419        5.78319220        7.57572640
C        1.41461720        6.67452660        8.40861270
C        0.52989941        7.45370510        5.79966380
C        1.33996940        8.44499760        6.64845620
C        2.18746390        9.38937100        9.36637270
C        3.12413520       10.20293500       10.20244700
C        2.14009000        0.37573631        0.45066959
C        3.06333310        1.32160450        1.32716760
C        3.99632640        9.38742180        0.42838320
C        4.92363500       10.17881400        1.40430600
C        3.98044200        0.46188857        9.35308020
C        4.91504770        1.27812050       10.19970200
C        2.19678140        9.25254870        2.20324670
C        3.12125820       10.23439300        3.13277980
C        2.16302360        0.43348411        4.02574410
C        3.12217750        1.34499250        4.88572960
C        4.02127080        9.39273400        4.01134560
C        4.88323420       10.27099500        4.92410120
C        4.00973830        0.42598920        2.22969900
C        4.82538280        1.34966430        3.10447080
C        2.24229060        9.36923270        5.78195690
C        3.21765540       10.25949400        6.69025930
C        2.24654610        0.46363990        7.47671560
C        3.11891180        1.29037780        8.42039310
C        4.04428800        9.39213280        7.65369140
C        4.85957710       10.18945600        8.42900670
C        4.03526880        0.44295251        5.78754040
C        4.93797200        1.29440240        6.63707110
C        2.22062100        2.21279780        9.27962900
C        3.10271470        3.09204090       10.15858900
C        2.26146040        3.87479510        0.44017126
C        3.12989830        4.77861220        1.35585900
C        4.02081650        2.21110020        0.39652441
C        4.83090360        3.08193020        1.26990430
C        4.01066210        4.00439810        9.27667650
C        4.87552310        4.86324190       10.09305700
C        2.25131460        2.15069670        2.16783640
C        3.12922250        3.07039950        3.07590060
C        2.13517130        4.00870050        3.99183180
C        3.10133630        4.86690010        4.91400510
C        3.98172500        2.22077040        3.94679050
C        4.90715700        3.04537860        4.77320500
C        4.03301800        3.99160830        2.20910330
C        4.88294660        4.88701230        3.09396390
C        2.19943290        2.19304790        5.71298840
C        3.17346630        3.06479890        6.61490880
C        2.26091850        3.93407300        7.51658140
C        3.12278880        4.92972850        8.41380260
C        4.00231740        2.20367190        7.56562880
C        4.89581240        3.11603790        8.34804430
C        3.97621850        3.92742930        5.70514110
C        4.85181880        4.91719970        6.58553670
C        2.18434320        5.77452610        9.30272810
C        3.10013570        6.70378120       10.25303200
C        2.19065090        7.51318250        0.45734730
C        3.10378850        8.43728120        1.30060720
C        3.94216440        5.71026710        0.56910804
C        4.87487880        6.68206490        1.34269720
C        4.03330590        7.60781970        9.34125900
C        4.83713410        8.45841170       10.17077600
C        2.16848860        5.74106610        2.16968910
C        3.07901520        6.64556740        3.07729220
C        2.24917550        7.52896980        4.02691950
C        3.07267090        8.45014120        4.82446810
C        3.99676790        5.74994230        3.93010180
C        4.91852950        6.66100580        4.88248130
C        3.91778530        7.54041730        2.21371070
C        4.80165230        8.46609200        3.15070050
C        2.24578210        5.77137980        5.77947420
C        2.99372930        6.71884870        6.70094150
C        2.23762400        7.56633430        7.59627810
C        3.08614470        8.46610330        8.46416150
C        3.98241040        5.85871110        7.56378870
C        4.87509290        6.76109950        8.45057870
C        3.99815970        7.65033400        5.74503660
C        4.94332780        8.48427250        6.64555750
C        5.75931300        9.27374980        9.32365120
C        6.60817180       10.17099200       10.22128300
C        5.79482980        0.43456536        0.45281600
C        6.66363940        1.37198770        1.31372410
C        7.56274120        9.34097900        0.43326391
C        8.40532100       10.25722600        1.36473250
C        7.60797920        0.40869649        9.31289370
C        8.39174490        1.27605420       10.22897500
C        5.69271160        9.25385860        2.22033480
C        6.65386580       10.11861900        3.16511940
C        5.82198370        0.50204954        4.04156620
C        6.70293770        1.32939850        4.90297950
C        7.55554380        9.27642110        4.01693890
C        8.49610080       10.12512700        4.87234770
C        7.48685330        0.40829018        2.22163750
C        8.40561490        1.23716310        3.10976190
C        5.80681660        9.33397870        5.84090770
C        6.73437720       10.17224100        6.68620910
C        5.81951840        0.38125684        7.64617970
C        6.65423260        1.32408380        8.51549850
C        7.56647800        9.36673060        7.61772260
C        8.40114520       10.23842000        8.40658450
C        7.63691360        0.44514059        5.78194200
C        8.47060790        1.28005950        6.63978980
C        5.70047000        2.19082060        9.32796700
C        6.70418360        3.07668940       10.26886700
C        5.80191820        3.94355170        0.45133199
C        6.56989070        4.82808530        1.35067270
C        7.49643870        2.22630900        0.33303869
C        8.44049750        3.09739970        1.24418530
C        7.46677570        4.04543360        9.32525940
C        8.41669090        4.82763330       10.19521700
C        5.72600380        2.23016510        2.19936930
C        6.57576670        3.07069620        3.14177500
C        7.53086040        2.22727730        4.04071100
C        8.41187850        3.16509890        4.90882840
C        7.53061960        3.95493650        2.25555740
C        8.38927440        4.86834010        3.05962310
C        5.78241330        2.16153990        5.73648220
C        6.67724860        3.19789980        6.64584120
C        5.76623930        3.94522840        7.53016780
C        6.70044040        4.88641080        8.45105880
C        7.54105990        2.19070830        7.58774960
C        8.43619610        3.10438520        8.45750380
C        7.60202660        4.00817120        5.87904370
C        8.41313650        4.91276880        6.66607370
C        5.80061100        5.80065000        9.32422450
C        6.67187160        6.67466930       10.24267700
C        5.70149080        7.51324180        0.52345728
C        6.64417420        8.39416240        1.35138290
C        7.55402430        5.80278000        0.42423646
C        8.42239390        6.68716510        1.34321870
C        7.57316760        7.52324640        9.33882270
C        8.45835110        8.41625070       10.24339700
C        5.77900400        5.71717560        2.22529840
C        6.62202070        6.62503630        3.10544070
C        5.73281650        7.57877000        4.02606410
C        6.65243850        8.40488000        4.94316570
C        7.56388940        5.84907730        3.87849750
C        8.32868780        6.62049160        4.86863150
C        7.47884080        7.54192160        2.23880100
C        8.38857860        8.46869280        3.13560420
C        5.71067240        5.75871560        5.83464500
C        6.64411970        6.62030800        6.71840610
C        5.76729960        7.52166040        7.54088380
C        6.68708220        8.40481680        8.39651000
C        7.48422840        5.75254330        7.60146800
C        8.45247070        6.63439840        8.43416950
C        7.60941010        7.56199570        5.77435880
C        8.39155900        8.48864640        6.64019910
N        5.67180660        3.94076930        3.92214800
