&CONTROL
calculation = 'scf'
restart_mode = 'from_scratch'
verbosity = 'high'
wf_collect = .true.
pseudo_dir='/home/arpank/pseudopotentials/'
tprnfor = .true.
/
&SYSTEM
ibrav = 0
ecutwfc = 60
tot_charge = -1
nspin = 2
tot_magnetization = 2.0
nbnd = 480
nat = 215
ntyp = 2
input_dft = 'PBE0'
exx_fraction = 0.18
ecutfock = 120
/
&ELECTRONS
conv_thr = 1D-8
diago_full_acc=.true.
mixing_beta = 0.3
/
&IONS
ion_dynamics='bfgs'
ion_positions='default'
/
K_POINTS gamma
ATOMIC_SPECIES
C  12.01099968  C_ONCV_PBE-1.0.upf
N  14.00699997  N_ONCV_PBE-1.0.upf
CELL_PARAMETERS angstrom
    10.65000000      0.00000000      0.00000000
     0.00000000     10.65000000      0.00000000
     0.00000000      0.00000000     10.65000000
ATOMIC_POSITIONS angstrom
C        9.22470340        9.28833170        9.29885370
C       10.23814600       10.23555100       10.18743000
C        9.29878470        0.47879738        0.40408474
C       10.18359100        1.39476790        1.36201590
C        0.41240279        9.27119940        0.46421779
C        1.34006690       10.23880500        1.24552040
C        0.42502048        0.46213041        9.37946670
C        1.37709000        1.28895800       10.19728800
C        9.33094890        9.28937040        2.26194650
C       10.18155700       10.16885000        3.11580250
C        9.28946260        0.45370081        4.03738200
C       10.22225600        1.32109880        4.87418100
C        0.46490520        9.28201390        4.04501230
C        1.39472230       10.26215900        4.88393510
C        0.44576215        0.38966856        2.21452070
C        1.28443680        1.25500900        3.09935510
C        9.34681720        9.32790480        5.83264340
C       10.26047500       10.24136100        6.64414780
C        9.34336080        0.43032741        7.61557880
C       10.15722000        1.28571580        8.43566200
C        0.46256154        9.35272680        7.60504500
C        1.24938900       10.20918400        8.47040050
C        0.44655181        0.36898484        5.72232300
C        1.32903700        1.31541720        6.72576070
C        9.26694890        2.27073920        9.37516010
C       10.14918400        3.15457400       10.19671000
C        9.29047230        3.93872340        0.43574018
C       10.22796000        4.85858670        1.28082290
C        0.38707845        2.21000210        0.45582629
C        1.32089240        3.07333080        1.31153400
C        0.50561822        3.95668090        9.35566300
C        1.26103140        4.85893240       10.22696800
C        9.31141120        2.23118670        2.17728940
C       10.20945600        3.13582250        3.15619230
C        9.33687840        3.93566630        4.01341130
C       10.22762300        4.88033530        4.92475030
C        0.42566445        2.22658220        3.98667640
C        1.30042140        3.03953420        4.82431390
C        0.42181420        3.98617490        2.18944110
C        1.25501860        4.91404780        3.09897770
C        9.37104480        2.17403970        5.78479680
C       10.23084500        3.09724440        6.63835090
C        9.38269900        3.96722610        7.56962860
C       10.23128800        4.86231020        8.42914820
C        0.48421839        2.21271450        7.49078040
C        1.31935280        3.07041100        8.45445650
C        0.45441676        3.98015450        5.82301620
C        1.34962780        4.91221330        6.73275260
C        9.30433240        5.72419020        9.31320870
C       10.22104700        6.61653900       10.16198900
C        9.38877410        7.52652400        0.41420127
C       10.23006900        8.43598050        1.29089950
C        0.38942857        5.77767640        0.45128803
C        1.28299610        6.68648340        1.32412540
C        0.41898631        7.52609420        9.30569620
C        1.28577410        8.42740170       10.21469200
C        9.28305650        5.71824040        2.26867320
C       10.22026600        6.55542710        3.13697050
C        9.34404190        7.55415180        3.98446080
C       10.19865000        8.32359590        4.87080880
C        0.46719016        5.75245210        4.06564980
C        1.33241810        6.70422810        4.96409470
C        0.44374797        7.47529660        2.22712050
C        1.36055200        8.43787490        3.04643250
C        9.34365470        5.70625670        5.72590990
C       10.23946900        6.64798610        6.65892470
C        9.36535920        7.53111950        7.58340940
C       10.23286200        8.46833360        8.46692690
C        0.38794363        5.75541240        7.52497420
C        1.30230550        6.64776760        8.34898240
C        0.44511064        7.49350570        5.78510850
C        1.30335990        8.46065920        6.68693280
C        2.16561150        9.29076630        9.36679150
C        3.09554440       10.18790600       10.23582100
C        2.26955050        0.53121814        0.43004004
C        3.13566150        1.35277620        1.34094970
C        3.96146740        9.36496530        0.44885548
C        4.91819540       10.25347600        1.34098640
C        3.97511630        0.43641781        9.32953490
C        4.87893740        1.31609120       10.18934900
C        2.22780810        9.35593890        2.21181810
C        3.03915950       10.20860000        3.08535400
C        2.23516500        0.47729624        3.92202900
C        3.14644870        1.29922890        4.86366760
C        3.99342330        9.41560620        3.99836450
C        4.89930000       10.16983900        4.86522180
C        4.01347050        0.47440916        2.24951210
C        4.87196970        1.31511330        3.16799480
C        2.28024730        9.37310400        5.81958940
C        3.10181100       10.23577000        6.67525060
C        2.28402000        0.33628534        7.54169500
C        3.11421540        1.32714230        8.40744500
C        3.95805210        9.34197280        7.52490350
C        4.83832700       10.20128300        8.43609400
C        4.09297050        0.45679542        5.76183440
C        4.91087540        1.34064590        6.66161300
C        2.22399600        2.17266030        9.25394200
C        3.07521620        3.11147460       10.18729800
C        2.17516340        4.01503620        0.38237903
C        3.03686220        4.90745140        1.31681010
C        4.02335000        2.19499870        0.49282927
C        4.87796720        3.11546730        1.38996750
C        3.99168910        4.02525340        9.25319680
C        4.97664560        4.80089910       10.23535600
C        2.19325110        2.23058160        2.21645680
C        3.03578420        3.15095670        3.12460590
C        2.19996530        4.04242560        3.89036080
C        3.10706150        4.88961290        4.86915680
C        3.96212480        2.24498370        3.93816390
C        4.91721700        3.16761440        4.77917870
C        3.93316350        3.97262300        2.22797690
C        4.91102820        4.88998850        3.05977660
C        2.26935670        2.20482410        5.74769040
C        3.06850680        3.07147700        6.56273870
C        2.27571870        3.98130020        7.58991280
C        3.14686070        4.85431620        8.40589490
C        3.95699210        2.23001840        7.54848240
C        4.85191000        3.08034520        8.43715110
C        3.98525600        4.01132250        5.69014770
C        4.94338550        4.86347920        6.59978550
C        2.21403330        5.68562750        9.28749210
C        3.05147970        6.68821800       10.14908800
C        2.17567680        7.53094040        0.46794585
C        3.18181970        8.45253030        1.33401190
C        4.00067100        5.71414190        0.42102535
C        5.01131180        6.67539440        1.30039600
C        4.00253090        7.58229890        9.31294890
C        4.85041740        8.44900060       10.25897300
C        2.15344570        5.78012050        2.26394960
C        3.12855640        6.67896580        3.11470590
C        2.23713560        7.62432050        4.03804000
C        3.11202330        8.55436220        4.84433500
C        3.96289260        5.74569190        3.99124090
C        4.88142560        6.58716190        4.82287210
C        4.03418160        7.49378040        2.21325110
C        4.96461040        8.51671850        3.07980670
C        2.26317880        5.75484590        5.76604760
C        3.19584570        6.63861660        6.67856530
C        2.26779040        7.53738370        7.54028940
C        3.08981250        8.41633160        8.46088330
C        4.03307410        5.76219770        7.58480230
C        4.85370460        6.65751320        8.44898710
C        3.98949050        7.51762550        5.72607940
C        4.90031390        8.36342790        6.61342460
C        5.67268970        9.37517410        9.35208270
C        6.67934450       10.23981600       10.15493700
C        5.80198160        0.45006344        0.40038378
C        6.57779740        1.37279100        1.30818020
C        7.54734130        9.35584410        0.49445873
C        8.41754620       10.21176300        1.40704240
C        7.45378210        0.42003701        9.34261710
C        8.47280390        1.32618010       10.22786200
C        5.66717350        9.29989640        2.26209120
C        6.67173060       10.26536000        3.09077300
C        5.83274000        0.47383812        4.02505160
C        6.64205360        1.34526820        4.83400800
C        7.56011550        9.29066960        3.95350170
C        8.41011710       10.11501300        4.89784870
C        7.54164580        0.49786473        2.21229830
C        8.37657590        1.35399180        3.09420250
C        5.79383930        9.33318480        5.72299760
C        6.62811250       10.17889600        6.68104510
C        5.75504690        0.46221730        7.54200170
C        6.55621860        1.39137480        8.45026450
C        7.57455920        9.33311090        7.54970800
C        8.39259780       10.19066800        8.42691450
C        7.50176180        0.41636935        5.82030970
C        8.41600700        1.22029590        6.70314920
C        5.74379540        2.19378140        9.31658970
C        6.59595380        3.10779970       10.26114100
C        5.76790430        4.05784140        0.51833178
C        6.65743610        4.92220170        1.32931510
C        7.52245830        2.19444330        0.46327918
C        8.40136700        3.08449010        1.36532940
C        7.51438840        4.01910750        9.28240480
C        8.43513480        4.92566270       10.21234700
C        5.76456040        2.21589140        2.30148850
C        6.68932450        3.08815130        3.09458540
C        7.54355830        2.26862570        3.99646530
C        8.44455460        3.09377790        4.95022940
C        7.51161410        3.97210730        2.25019230
C        8.43116690        4.93719870        3.11540720
C        5.79836640        2.28689030        5.71223080
C        6.74312420        3.14539350        6.61195620
C        5.79152890        3.94054640        7.54362980
C        6.64517910        4.94883790        8.41202740
C        7.50806340        2.17914330        7.48568040
C        8.38294070        3.11989710        8.40455200
C        7.58819210        3.91179340        5.86141340
C        8.39851630        4.83502440        6.60301160
C        5.79799310        5.82365550        9.35256080
C        6.65047850        6.62591830       10.25754500
C        5.77371650        7.63056990        0.48899622
C        6.64155090        8.41602730        1.35461690
C        7.55115700        5.82058930        0.47436991
C        8.44670550        6.58072300        1.35388360
C        7.61951800        7.62134070        9.36899610
C        8.48144450        8.43738520       10.19396700
C        5.79255840        5.81327450        2.20949670
C        6.74444390        6.61725180        3.06020090
C        5.83816730        7.52373710        3.99253940
C        6.71984850        8.43394870        4.81473860
C        7.57924000        5.83019580        3.96760080
C        8.46564220        6.62668030        4.84674540
C        7.55992060        7.59440260        2.22736100
C        8.43408920        8.45607610        3.08898930
C        5.68131820        5.84423000        5.78786370
C        6.64868760        6.65779060        6.58262220
C        5.84945800        7.50979960        7.51483250
C        6.57368130        8.47999930        8.42276480
C        7.50311580        5.75795720        7.43764580
C        8.32001690        6.62812240        8.36362850
C        7.51913900        7.59027170        5.76800660
C        8.42449580        8.47526030        6.64278700
N        5.76674050        3.93777510        4.01258760
