&CONTROL
calculation = 'scf'
restart_mode = 'from_scratch'
verbosity = 'high'
wf_collect = .true.
pseudo_dir='/home/arpank/pseudopotentials/'
tprnfor = .true.
/
&SYSTEM
ibrav = 0
ecutwfc = 60
tot_charge = -1
nspin = 2
tot_magnetization = 2.0
nbnd = 480
nat = 215
ntyp = 2
input_dft = 'PBE0'
exx_fraction = 0.18
ecutfock = 120
/
&ELECTRONS
conv_thr = 1D-8
diago_full_acc=.true.
mixing_beta = 0.3
/
&IONS
ion_dynamics='bfgs'
ion_positions='default'
/
K_POINTS gamma
ATOMIC_SPECIES
C  12.01099968  C_ONCV_PBE-1.0.upf
N  14.00699997  N_ONCV_PBE-1.0.upf
CELL_PARAMETERS angstrom
    10.65000000      0.00000000      0.00000000
     0.00000000     10.65000000      0.00000000
     0.00000000      0.00000000     10.65000000
ATOMIC_POSITIONS angstrom
C        9.38763110        9.34934950        9.31870670
C       10.25181500       10.24363400       10.25061600
C        9.29490620        0.51994534        0.47463120
C       10.16941500        1.28942530        1.36402840
C        0.45856621        9.37174390        0.50392024
C        1.28081790       10.21135800        1.29462140
C        0.35114464        0.41101188        9.33511430
C        1.34493360        1.29631780       10.24982000
C        9.30918610        9.28095640        2.17267910
C       10.18261100       10.21335300        3.04515430
C        9.33534340        0.41317985        3.96131630
C       10.21885200        1.31621040        4.92439970
C        0.37678689        9.39562450        3.96836900
C        1.33669390       10.21121900        4.96284720
C        0.45675495        0.40391419        2.23334590
C        1.31792480        1.34372500        3.09453850
C        9.37674140        9.33999260        5.73151700
C       10.22536300       10.19072900        6.64408120
C        9.32792440        0.40801395        7.54706740
C       10.17587500        1.33173790        8.44844780
C        0.55937844        9.34045890        7.48231510
C        1.32719330       10.26608000        8.42366090
C        0.42270621        0.48921775        5.78687990
C        1.25150410        1.33240460        6.68611900
C        9.32220490        2.21030150        9.31289190
C       10.21378300        3.11688150       10.16911900
C        9.29273850        3.96680690        0.46813954
C       10.22742300        4.81393520        1.30742440
C        0.43235449        2.27641230        0.42675928
C        1.33605160        3.18666880        1.42798130
C        0.47729677        4.05556250        9.37651380
C        1.37746570        4.88098360       10.13589600
C        9.31472300        2.24417160        2.23337550
C       10.23874800        3.13356020        3.11449840
C        9.29463340        4.00030190        4.00309870
C       10.19279700        4.94993530        4.84834560
C        0.42518097        2.24378570        4.04397780
C        1.31264880        3.14080860        4.84184510
C        0.44910370        4.02514460        2.24588930
C        1.27116430        4.91042110        3.07943600
C        9.30192090        2.14946000        5.77421110
C       10.23268000        3.08487380        6.70233470
C        9.35851230        4.03169160        7.64285020
C       10.28234900        4.88355090        8.48553320
C        0.38994066        2.21604480        7.58091060
C        1.37202470        3.10595880        8.44290140
C        0.40664273        3.96409110        5.75467990
C        1.29591600        4.87237630        6.57267940
C        9.28541470        5.85501590        9.28734350
C       10.21217300        6.67142370       10.15451700
C        9.28253890        7.53838950        0.43074013
C       10.16674200        8.43570430        1.32675410
C        0.41413335        5.79029830        0.35308703
C        1.26415100        6.62737860        1.28307430
C        0.46767549        7.50869830        9.30111970
C        1.36769520        8.46403820       10.22164000
C        9.37931050        5.77666530        2.11785340
C       10.14418100        6.59592080        3.12544290
C        9.28346790        7.54686270        3.97212950
C       10.22803800        8.49787480        4.87365980
C        0.44449478        5.77865070        3.92603070
C        1.32264560        6.64352230        4.88847340
C        0.45561877        7.47336710        2.19564810
C        1.33088290        8.37897210        3.09590560
C        9.31589920        5.78288660        5.82948620
C       10.10799600        6.66170880        6.68106740
C        9.31725480        7.59002730        7.57514980
C       10.27362400        8.43974040        8.40983390
C        0.46333526        5.84524920        7.57171490
C        1.31137890        6.66265770        8.33470640
C        0.41220833        7.54216140        5.73858100
C        1.35458020        8.40547740        6.66647400
C        2.22119380        9.32361160        9.31955290
C        3.10365320       10.19109000       10.21918900
C        2.25061460        0.43147252        0.44414284
C        3.14713270        1.32995060        1.31148280
C        4.09160630        9.29453990        0.43242746
C        4.91349960       10.09867700        1.39946350
C        3.94879160        0.37519905        9.35080770
C        4.84474240        1.32034160       10.23231500
C        2.24368340        9.33739730        2.24043870
C        3.08981070       10.27344500        3.16135130
C        2.15947630        0.48735827        3.96680970
C        3.05397700        1.22943600        4.89065440
C        3.99319300        9.37045930        4.06348360
C        4.98262810       10.15393100        4.97647640
C        3.93820480        0.46305811        2.21352040
C        4.86543970        1.24448880        3.10641370
C        2.16701870        9.37047770        5.75304970
C        3.00550510       10.23580500        6.73496470
C        2.25347430        0.48428738        7.55800870
C        3.12643270        1.36387220        8.53130940
C        3.90629300        9.37562570        7.58069450
C        4.80500980       10.24591000        8.53082940
C        4.00922620        0.47905135        5.81483080
C        4.87092140        1.33147690        6.65185960
C        2.22646270        2.21479170        9.27825240
C        3.05411480        3.17731260       10.23409000
C        2.18455990        4.06980720        0.43510277
C        3.15231800        4.90731140        1.33626940
C        3.92377830        2.20474070        0.41456616
C        4.86427990        3.13666780        1.33361380
C        3.96728300        4.03532100        9.24640730
C        4.88752350        4.85186980       10.27269100
C        2.14563740        2.18408600        2.19365650
C        3.09308620        3.05907530        3.12548130
C        2.25700080        3.95680710        3.97099490
C        3.10241440        4.89295650        4.85667110
C        4.05839150        2.19723410        4.03679560
C        4.94147090        3.09754360        4.85298590
C        3.96441240        4.07109860        2.23237340
C        4.96432010        4.82405140        3.15856710
C        2.17877410        2.19406480        5.75086330
C        3.07243220        3.06289810        6.61632930
C        2.27960940        3.98177800        7.43687350
C        3.12919780        4.96390090        8.35460400
C        3.98094630        2.27795790        7.60153330
C        4.92257090        3.11519980        8.35995820
C        3.97351330        4.00896960        5.75240920
C        4.92295740        5.01432920        6.58465380
C        2.22443530        5.74979050        9.26629970
C        3.13204470        6.68451170       10.12097700
C        2.22672740        7.54907820        0.35509696
C        3.08579080        8.47926600        1.37264490
C        3.94480420        5.75292490        0.43399549
C        4.88598090        6.67812090        1.34638100
C        4.04164640        7.53676580        9.33729340
C        4.90152890        8.37208110       10.24449400
C        2.20870440        5.77111560        2.24477870
C        3.10544300        6.64221140        3.17469390
C        2.19052990        7.47783570        4.04487910
C        3.22406370        8.45504650        4.91968480
C        4.10239690        5.72950360        4.01126330
C        4.96911450        6.66428880        4.94215770
C        4.01104270        7.54456670        2.25296770
C        4.87453410        8.41488680        3.12837050
C        2.21376580        5.69888460        5.71649680
C        3.11384480        6.64936570        6.58239970
C        2.23418800        7.52273040        7.49129950
C        3.12065480        8.39496910        8.41687520
C        3.89216580        5.76453570        7.50541950
C        4.83947300        6.56058850        8.38510100
C        4.03006610        7.55973590        5.78894100
C        4.91385440        8.46795030        6.61415070
C        5.75231830        9.34170560        9.30475770
C        6.70868680       10.18246100       10.16634100
C        5.77340250        0.44798201        0.35203765
C        6.59139420        1.30940000        1.37124070
C        7.57113050        9.33168280        0.48825876
C        8.37294270       10.21490000        1.36990920
C        7.53401160        0.44457633        9.24713960
C        8.43892430        1.33226320       10.25437100
C        5.81676680        9.24595630        2.25445190
C        6.62572250       10.20879400        3.19380060
C        5.70180810        0.46315324        4.03859670
C        6.70185100        1.31701320        4.90055220
C        7.56863320        9.30039000        3.99452870
C        8.37876640       10.21841400        4.89197080
C        7.54320460        0.46375532        2.27967640
C        8.43399480        1.31061160        3.08748910
C        5.82117480        9.28498330        5.75150120
C        6.67293500       10.19569800        6.70877650
C        5.72654230        0.39839317        7.47322840
C        6.63477970        1.32411920        8.44888980
C        7.54438520        9.25701060        7.51621370
C        8.44521000       10.20234000        8.42558970
C        7.58035330        0.37516163        5.72137050
C        8.40505710        1.31165560        6.63928550
C        5.73446400        2.19631980        9.35387580
C        6.66300260        3.11948180       10.23497100
C        5.79518880        3.99744480        0.47799740
C        6.64880230        4.91692950        1.41163890
C        7.54386800        2.25021400        0.42090542
C        8.40198490        3.12964950        1.32515350
C        7.43722530        3.99475480        9.31093030
C        8.44396860        4.87789540       10.22987200
C        5.69294310        2.17854630        2.20775970
C        6.63745600        3.10880530        3.14236410
C        7.57506950        2.18688820        4.02588370
C        8.46595380        3.09176680        4.88517760
C        7.50847120        4.02497790        2.18560630
C        8.40981850        4.85514190        3.15675560
C        5.80154530        2.20154040        5.76316120
C        6.67237960        3.10927990        6.69488910
C        5.79274660        3.97781550        7.53683760
C        6.64595410        4.92437630        8.42123520
C        7.53189070        2.25390900        7.58825040
C        8.36474990        3.16466120        8.41575680
C        7.61177610        3.91456990        5.83224700
C        8.38782400        4.84966900        6.63467300
C        5.69763530        5.68135880        9.31594120
C        6.60242350        6.68167340       10.19252300
C        5.77840230        7.57526690        0.44514700
C        6.64113850        8.42125260        1.33793920
C        7.55961310        5.80826380        0.43629082
C        8.50134550        6.68499430        1.29354720
C        7.54013770        7.51705060        9.24795250
C        8.48737630        8.38294780       10.20891200
C        5.76903390        5.76501200        2.25606390
C        6.71093030        6.56234570        3.08811870
C        5.79455190        7.51995750        3.98184450
C        6.69194350        8.42634430        4.91778410
C        7.64053920        5.76663760        3.91734650
C        8.41284480        6.64755720        4.84828950
C        7.56607510        7.52626680        2.26763340
C        8.47768320        8.41899180        3.06530290
C        5.72308830        5.81879310        5.78871020
C        6.73458360        6.62824670        6.59467760
C        5.78690170        7.51602960        7.53369510
C        6.65504730        8.43656290        8.41481460
C        7.57092270        5.81011470        7.52357600
C        8.37901120        6.68955560        8.39532610
C        7.57906720        7.55113250        5.75905500
C        8.46328490        8.41847990        6.61022780
N        5.76512200        3.88249510        3.87422990
