&CONTROL
calculation = 'scf'
restart_mode = 'from_scratch'
verbosity = 'high'
wf_collect = .true.
pseudo_dir='/home/arpank/pseudopotentials/'
tprnfor = .true.
/
&SYSTEM
ibrav = 0
ecutwfc = 60
tot_charge = -1
nspin = 2
tot_magnetization = 2.0
nbnd = 480
nat = 215
ntyp = 2
input_dft = 'PBE0'
exx_fraction = 0.18
ecutfock = 120
/
&ELECTRONS
conv_thr = 1D-8
diago_full_acc=.true.
mixing_beta = 0.3
/
&IONS
ion_dynamics='bfgs'
ion_positions='default'
/
K_POINTS gamma
ATOMIC_SPECIES
C  12.01099968  C_ONCV_PBE-1.0.upf
N  14.00699997  N_ONCV_PBE-1.0.upf
CELL_PARAMETERS angstrom
    10.65000000      0.00000000      0.00000000
     0.00000000     10.65000000      0.00000000
     0.00000000      0.00000000     10.65000000
ATOMIC_POSITIONS angstrom
C        9.34944090        9.35521390        9.29707220
C       10.27584700       10.13574400       10.21470900
C        9.32833860        0.40217393        0.37807608
C       10.26355600        1.28665940        1.29953770
C        0.43405323        9.30139140        0.36705075
C        1.34107910       10.20054400        1.27565610
C        0.47003902        0.46977588        9.32255690
C        1.36399820        1.38283520       10.14757300
C        9.35958810        9.30697940        2.21758770
C       10.20656600       10.14789000        3.11414250
C        9.27686650        0.41149704        4.07501140
C       10.18003700        1.43513430        4.84948910
C        0.40956947        9.30649940        3.96958090
C        1.30362470       10.21044000        4.92284410
C        0.41083058        0.40346252        2.19077600
C        1.32389950        1.28220770        3.10216000
C        9.30596120        9.29867510        5.86286020
C       10.23491500       10.19970800        6.62856380
C        9.35293610        0.40947847        7.53185230
C       10.17326400        1.28555500        8.47595620
C        0.42031061        9.32368910        7.55986620
C        1.31610620       10.19126300        8.30532690
C        0.37993914        0.45166368        5.78411480
C        1.32055410        1.37316300        6.60663590
C        9.29883140        2.25377040        9.36332040
C       10.25121000        3.14243500       10.18889200
C        9.28879730        3.98459670        0.41338854
C       10.16779500        4.82671440        1.35644230
C        0.47010567        2.25194830        0.41220322
C        1.29979040        3.17927000        1.28303000
C        0.45330525        4.03816870        9.25267900
C        1.36866660        4.88652470       10.20266600
C        9.40625650        2.18740140        2.24837000
C       10.26640400        3.10956680        3.04604290
C        9.32248160        4.02520640        4.00991690
C       10.11620400        4.86733490        4.92495340
C        0.44605340        2.18743860        3.94575400
C        1.31984560        3.08504300        4.88898270
C        0.35234520        4.06929960        2.23985260
C        1.31140220        4.86797240        3.10091380
C        9.28825650        2.23937340        5.71116630
C       10.17629300        3.08759080        6.65717420
C        9.39590150        4.07945530        7.57225890
C       10.22403700        4.90588890        8.42369420
C        0.53036962        2.24467490        7.52334900
C        1.35484370        3.12599650        8.43684270
C        0.49349470        3.96553550        5.75080320
C        1.39947790        4.84657100        6.70373260
C        9.30344620        5.80098780        9.30275060
C       10.18259300        6.63774930       10.11617000
C        9.32450450        7.42813880        0.34141323
C       10.15012500        8.39649510        1.29516130
C        0.44925718        5.75682100        0.39139325
C        1.26244370        6.60739020        1.32033260
C        0.49048730        7.55891710        9.29802190
C        1.37617730        8.47597760       10.18031200
C        9.30723670        5.80275870        2.17054260
C       10.26037000        6.68399440        3.13707750
C        9.34327250        7.57511910        3.98819560
C       10.25030800        8.39792690        4.89685780
C        0.34473733        5.78884530        4.03160210
C        1.33962210        6.61987800        4.88119120
C        0.39275355        7.55946020        2.22093100
C        1.35894240        8.44920080        3.13155350
C        9.34507880        5.69920590        5.76376980
C       10.25613100        6.60688340        6.64687520
C        9.35437700        7.52115180        7.45688250
C       10.17079000        8.42024770        8.41345860
C        0.48087946        5.78089310        7.48943220
C        1.36101650        6.67611120        8.43670040
C        0.45415115        7.51642580        5.75081700
C        1.34115310        8.42597640        6.66582140
C        2.24223930        9.32887010        9.21389780
C        3.11133180       10.25432700       10.17021900
C        2.15586170        0.43098940        0.47607375
C        3.10163170        1.28114330        1.35009850
C        3.93740700        9.32751660        0.39513158
C        4.84292340       10.22057500        1.37094450
C        3.97439340        0.47632195        9.32153250
C        4.89825860        1.30979520       10.24597900
C        2.22361600        9.32391720        2.23999940
C        3.06936450       10.19544900        3.12635180
C        2.20226610        0.41269670        3.98676690
C        3.00229080        1.36894950        4.89554200
C        3.98777640        9.36592460        3.99331530
C        4.88662320       10.18848700        4.87839970
C        3.93025320        0.39628541        2.23431590
C        4.86336630        1.32276140        3.17494150
C        2.19042580        9.35992820        5.73652710
C        3.03096790       10.14583100        6.71037270
C        2.14919350        0.46483764        7.51058860
C        3.08763350        1.29964930        8.40461520
C        4.00930540        9.32599660        7.58056300
C        4.84992470       10.21662700        8.41741100
C        3.94485700        0.49446932        5.76108990
C        4.87250630        1.32608320        6.63715340
C        2.21410460        2.17506920        9.36749350
C        3.11283460        3.12638090       10.22447600
C        2.22772590        4.04651870        0.50321062
C        3.08031590        4.91063740        1.37323800
C        3.97949280        2.11863720        0.49148003
C        4.86891420        3.10117480        1.33816020
C        4.02760930        4.01201050        9.32816660
C        4.89684490        4.88637320       10.22314000
C        2.17447610        2.25876980        2.25310340
C        3.12070880        3.12904100        3.17121140
C        2.19980480        3.96373480        3.99978530
C        3.12976580        4.82889740        4.85332470
C        3.97686710        2.19256590        4.07914670
C        4.84417070        3.11680870        4.90814940
C        4.00506650        3.98495990        2.25563680
C        4.96251140        4.80094020        3.08249860
C        2.14537590        2.21642170        5.71669330
C        3.19066510        3.11061910        6.66876610
C        2.32088720        3.97047900        7.52458080
C        3.18574960        4.93573260        8.40171320
C        4.02821430        2.15524870        7.59044140
C        4.90125040        3.07839220        8.43439860
C        4.00008040        4.06466200        5.80870260
C        4.90501650        4.89561490        6.59434810
C        2.23132290        5.79046810        9.34114460
C        3.03725450        6.62901760       10.15258100
C        2.26766540        7.52366860        0.33681464
C        3.18795810        8.51547610        1.31766930
C        4.00577030        5.74342440        0.42037891
C        4.87775730        6.62531320        1.43613430
C        4.01544670        7.52772730        9.35676930
C        4.86565780        8.39936000       10.28893700
C        2.17767920        5.80672440        2.21964100
C        3.17065950        6.66619280        3.12358300
C        2.18994780        7.48883350        4.04811970
C        3.10435650        8.47858810        4.89360450
C        4.06252060        5.72612500        3.96881860
C        4.86131090        6.64167350        4.93901750
C        3.98290680        7.51662570        2.21582960
C        4.84907750        8.44776770        3.09461890
C        2.19015790        5.69251170        5.70922260
C        3.06147590        6.61609500        6.66764960
C        2.25829100        7.55254610        7.53535930
C        3.15383340        8.42176700        8.35315740
C        3.99704670        5.72508600        7.64839030
C        4.95484400        6.61403240        8.48925970
C        3.97345040        7.53456070        5.78721350
C        4.90936690        8.42606040        6.74506340
C        5.71410120        9.22612330        9.33644560
C        6.61018010       10.16970300       10.25230300
C        5.75907270        0.42677920        0.48973603
C        6.71239260        1.40136310        1.32055790
C        7.54444770        9.28155930        0.38410983
C        8.42919200       10.22526400        1.28511950
C        7.53302720        0.43556677        9.30821850
C        8.38581910        1.42151260       10.18320800
C        5.76538850        9.27836590        2.26831960
C        6.70666350       10.23031000        3.07896690
C        5.81055390        0.50635896        4.04111690
C        6.66460620        1.31435140        4.81601990
C        7.55846490        9.36970790        4.06585610
C        8.37032710       10.19362600        4.89004990
C        7.51436540        0.48224068        2.20332800
C        8.42728830        1.36027730        3.10174370
C        5.75646100        9.34958160        5.73371270
C        6.68712390       10.27430700        6.66749290
C        5.82394330        0.37636884        7.54856840
C        6.60973730        1.24835510        8.50324110
C        7.56178470        9.35889130        7.60046050
C        8.46788550       10.21012400        8.38890970
C        7.55014080        0.51349728        5.83538700
C        8.40084890        1.37450790        6.72896390
C        5.77002980        2.18593010        9.28045850
C        6.62606460        3.17343230       10.20746400
C        5.79290610        4.00724660        0.44391028
C        6.64225840        4.93931860        1.32462710
C        7.49206010        2.28497240        0.46851146
C        8.46513050        3.08653570        1.36438050
C        7.56174890        4.06575500        9.33828400
C        8.41032360        4.90745770       10.18349800
C        5.84938620        2.21629330        2.23003430
C        6.63964690        3.09816870        3.13619840
C        7.56778830        2.27332200        3.99730990
C        8.45479550        3.13290120        4.90424990
C        7.51907060        4.00115290        2.27878250
C        8.38947510        4.91800660        3.09150080
C        5.76761350        2.21913400        5.73992870
C        6.57956560        3.13136720        6.76422930
C        5.73049370        3.97255470        7.55392300
C        6.66283460        4.93543720        8.39065990
C        7.54232090        2.18012740        7.57935370
C        8.39627370        3.15572040        8.44777100
C        7.59361120        3.92521450        5.82161990
C        8.45019640        4.87726930        6.58292210
C        5.74083350        5.77252630        9.29283420
C        6.72636180        6.65326800       10.28890900
C        5.77043540        7.50675260        0.47552639
C        6.63455760        8.47892940        1.32972610
C        7.54037820        5.79063640        0.47427960
C        8.39661570        6.70522780        1.31935010
C        7.62967790        7.45851950        9.31046460
C        8.47744130        8.41541780       10.11200300
C        5.71866240        5.73459450        2.23945640
C        6.64802980        6.63610450        3.12498980
C        5.70408030        7.53761150        3.97383390
C        6.67799630        8.38805810        4.79960090
C        7.55645360        5.86882600        3.95960560
C        8.38386020        6.66063740        4.83835440
C        7.53275660        7.56908520        2.16277500
C        8.43762280        8.39294720        3.11016690
C        5.68552800        5.81086460        5.88365640
C        6.65819530        6.69551100        6.61586730
C        5.82363420        7.56715910        7.56141350
C        6.58221900        8.35695900        8.45887430
C        7.55762690        5.78163060        7.50141160
C        8.54427700        6.63813770        8.39225870
C        7.60198430        7.61014230        5.73747040
C        8.38371670        8.41255110        6.66395620
N        5.70641150        3.91551160        3.93034320
