&CONTROL
calculation = 'scf'
restart_mode = 'from_scratch'
verbosity = 'high'
wf_collect = .true.
pseudo_dir='/home/arpank/pseudopotentials/'
tprnfor = .true.
/
&SYSTEM
ibrav = 0
ecutwfc = 60
tot_charge = -1
nspin = 2
tot_magnetization = 2.0
nbnd = 480
nat = 215
ntyp = 2
input_dft = 'PBE0'
exx_fraction = 0.18
ecutfock = 120
/
&ELECTRONS
conv_thr = 1D-8
diago_full_acc=.true.
mixing_beta = 0.3
/
&IONS
ion_dynamics='bfgs'
ion_positions='default'
/
K_POINTS gamma
ATOMIC_SPECIES
C  12.01099968  C_ONCV_PBE-1.0.upf
N  14.00699997  N_ONCV_PBE-1.0.upf
CELL_PARAMETERS angstrom
    10.65000000      0.00000000      0.00000000
     0.00000000     10.65000000      0.00000000
     0.00000000      0.00000000     10.65000000
ATOMIC_POSITIONS angstrom
C        9.29249720        9.27653670        9.26950400
C       10.30575000       10.25543400       10.17692400
C        9.35033330        0.51037546        0.37791411
C       10.19836500        1.35337600        1.29875140
C        0.39976888        9.30639880        0.46346988
C        1.24073640       10.21496600        1.32155160
C        0.48915851        0.49168357        9.27608130
C        1.37114340        1.34933500       10.16629200
C        9.27277530        9.34726280        2.28802520
C       10.15476500       10.26028400        3.16736640
C        9.26559760        0.47587121        3.92058490
C       10.21588700        1.31424480        4.81284570
C        0.42352623        9.36731580        4.00191630
C        1.35617330       10.17579200        4.89979540
C        0.39656226        0.42973074        2.17975330
C        1.37432260        1.32356390        3.09386770
C        9.26419470        9.29847950        5.74668970
C       10.18522800       10.21544700        6.66912060
C        9.33064190        0.44017337        7.51266380
C       10.20118300        1.27192510        8.38234070
C        0.48151189        9.29273630        7.51013400
C        1.36568280       10.19121900        8.44774370
C        0.39527544        0.43662570        5.74984250
C        1.25145450        1.31653700        6.63892410
C        9.31600240        2.19999170        9.27424370
C       10.23875900        3.08502190       10.23035600
C        9.31849830        3.94827160        0.39993765
C       10.20977100        4.91761120        1.33169240
C        0.49576810        2.22436090        0.48818170
C        1.34193470        3.14389500        1.30791910
C        0.43474672        4.02534550        9.30109750
C        1.36652630        4.89554300       10.21646900
C        9.30283060        2.19671870        2.27048050
C       10.18049100        3.11455090        3.09488690
C        9.26111460        3.96976170        4.05053120
C       10.18576900        4.93217380        4.90588650
C        0.46015198        2.21204340        3.96305630
C        1.34560350        3.10588660        4.90930640
C        0.37172944        4.01837440        2.19557450
C        1.32512920        4.91592670        3.07748610
C        9.34407730        2.14246810        5.77947860
C       10.15639700        3.08826360        6.57077070
C        9.42065650        3.96054000        7.54788320
C       10.22987100        4.92611480        8.41680530
C        0.45474978        2.13433520        7.55331740
C        1.35862460        3.13953880        8.41922390
C        0.44627137        4.05591350        5.81641850
C        1.33244520        4.90937090        6.68996420
C        9.31631700        5.79485700        9.31269340
C       10.17547700        6.71895300       10.27174000
C        9.35046070        7.57024920        0.40803602
C       10.22531600        8.49102090        1.39870120
C        0.41811468        5.77784330        0.35588820
C        1.29555890        6.66352560        1.42031550
C        0.43895265        7.55061710        9.37409060
C        1.32968240        8.48155890       10.19505200
C        9.29099560        5.81381170        2.26275380
C       10.23263300        6.63015320        3.16157940
C        9.29893700        7.55903920        3.99018730
C       10.23806700        8.38005030        4.89081680
C        0.42936154        5.78457630        4.04178240
C        1.37237820        6.61345660        4.89882000
C        0.48024848        7.49814890        2.30573490
C        1.36367650        8.40603730        3.17683690
C        9.33521880        5.81315210        5.75209020
C       10.21842800        6.63116300        6.66998650
C        9.29017350        7.57710990        7.48601170
C       10.16877100        8.41720640        8.40482820
C        0.37599448        5.78231130        7.63609460
C        1.28963240        6.71505630        8.49766480
C        0.43552971        7.48383200        5.83566490
C        1.32979380        8.43122510        6.59363560
C        2.26061840        9.29289670        9.39395990
C        3.14691590       10.21222800       10.20553200
C        2.26021020        0.41494513        0.44489976
C        3.15899430        1.31792890        1.35846140
C        4.00734780        9.26799530        0.40577626
C        4.85616700       10.17866600        1.33801960
C        3.97411780        0.47054750        9.33276290
C        4.88096150        1.33798960       10.30960400
C        2.21551940        9.31040990        2.28506290
C        3.13390930       10.17005400        3.11025470
C        2.22193510        0.50367358        4.02554100
C        3.16720030        1.23288770        4.93136420
C        3.97742180        9.40062860        3.96888130
C        4.88293290       10.18562500        4.76718260
C        4.04204180        0.53441636        2.22770410
C        4.88393160        1.31720770        3.11628440
C        2.16781430        9.34995440        5.67478910
C        3.12888980       10.20403800        6.66624900
C        2.21431360        0.45535603        7.44375820
C        3.09337140        1.34652620        8.44788190
C        4.02272530        9.30260110        7.54397690
C        4.89358550       10.18381100        8.52517670
C        3.95974310        0.42859782        5.79173990
C        4.85503200        1.29796740        6.63438770
C        2.25891990        2.24819080        9.27688320
C        3.10061710        3.13897650       10.21694600
C        2.23316940        4.02366110        0.51385858
C        3.14471660        4.94071400        1.29493070
C        3.90898040        2.25571680        0.51694822
C        4.76144220        3.08249960        1.35212070
C        3.92710500        4.07682030        9.38269640
C        4.87591490        4.85740800       10.20615500
C        2.26292550        2.22623920        2.20748010
C        3.05971820        3.04509520        3.17713870
C        2.17256170        3.99980630        4.03525910
C        3.06585710        4.87416950        4.81713780
C        3.99889290        2.16838000        4.05878590
C        4.85551150        3.15268130        4.82799640
C        3.99220880        4.00903670        2.23842570
C        4.91733590        4.87600160        3.10275610
C        2.28218620        2.14537210        5.76421310
C        3.16726260        3.11295300        6.61492080
C        2.13519900        3.97963550        7.50082120
C        3.08998930        4.86536510        8.45039690
C        3.97245680        2.23961260        7.52442740
C        4.77413450        3.13029080        8.44294010
C        4.01415010        3.97609430        5.72684680
C        4.84207860        4.81950320        6.66599030
C        2.17214170        5.82185650        9.32131280
C        3.16823630        6.66475270       10.19900600
C        2.21800340        7.52858370        0.50359997
C        3.07678780        8.38392140        1.30742220
C        4.06163320        5.81992200        0.45882025
C        4.90647030        6.70965120        1.35876570
C        4.00421340        7.51558460        9.31217540
C        4.93812480        8.45440510       10.26635100
C        2.22165200        5.85076240        2.23521270
C        3.04847530        6.64478130        3.12634520
C        2.21805620        7.48774450        4.00734990
C        3.17513620        8.38881210        4.92951140
C        3.99498240        5.76543500        3.93945500
C        4.88921480        6.68222570        4.92164350
C        3.99479520        7.60043570        2.22226500
C        4.91766220        8.47580320        3.13980640
C        2.29501020        5.76800270        5.79229500
C        3.14092460        6.66244800        6.66704140
C        2.29656750        7.55233970        7.45275420
C        3.13018160        8.40564190        8.43214470
C        4.04183940        5.73736010        7.55164820
C        4.89849500        6.69154650        8.40390060
C        4.04079920        7.57330720        5.80579460
C        4.92978050        8.42399080        6.60053790
C        5.80364890        9.29398400        9.35185660
C        6.68634860       10.22806700       10.14509300
C        5.79278780        0.37199867        0.41904624
C        6.62455130        1.33375180        1.31596300
C        7.50858640        9.34678510        0.37200227
C        8.44624340       10.22350200        1.25854990
C        7.55393970        0.41945440        9.34524100
C        8.43605430        1.27807200       10.15367500
C        5.77044970        9.26999860        2.18651220
C        6.60435420       10.25410200        3.06228800
C        5.82203760        0.37914169        3.91548330
C        6.62920780        1.33590490        4.89855040
C        7.53788400        9.35774870        3.95952840
C        8.47413000       10.16381400        4.83665040
C        7.47745620        0.46501775        2.16431130
C        8.44934700        1.39039440        3.07396540
C        5.80267060        9.31604060        5.66148410
C        6.62121760       10.22281100        6.60488160
C        5.78214430        0.47028797        7.54557560
C        6.67728060        1.34507880        8.45946490
C        7.47422080        9.30302250        7.51833100
C        8.37694080       10.18516000        8.43939960
C        7.54090120        0.37296815        5.75827840
C        8.40480550        1.32806360        6.63559760
C        5.83086840        2.22791900        9.36317670
C        6.62955740        3.07924820       10.27527600
C        5.77669580        3.93777620        0.47754134
C        6.63449690        4.88441250        1.35071960
C        7.56020040        2.18338340        0.48739823
C        8.38214050        3.03780710        1.37455170
C        7.59701400        4.06587640        9.35218280
C        8.45708620        4.88057060       10.19539000
C        5.66515970        2.20576560        2.25442380
C        6.57173370        3.11314090        3.08231790
C        7.53532240        2.20605400        3.97791480
C        8.36819120        3.14916890        4.87444380
C        7.50068160        3.98897920        2.18170630
C        8.39069080        4.85414660        3.08968720
C        5.78306620        2.18209950        5.80822890
C        6.69705770        3.10195100        6.67659760
C        5.76835140        3.99225600        7.52351160
C        6.68917170        4.90200370        8.40998060
C        7.51205280        2.17422140        7.58413170
C        8.41346690        3.12225290        8.43903040
C        7.54798020        3.99680800        5.87076990
C        8.43340500        4.87888450        6.67586330
C        5.84796920        5.70015610        9.29258040
C        6.64401180        6.63820060       10.21860700
C        5.76741470        7.51512830        0.41835136
C        6.67762890        8.46182570        1.24842030
C        7.61763220        5.76698530        0.43768454
C        8.50787530        6.76653260        1.32617350
C        7.59242950        7.53994020        9.32088180
C        8.47791010        8.44598110       10.21951200
C        5.75632950        5.73451950        2.23344960
C        6.61484070        6.64504890        3.09346100
C        5.71338630        7.53398170        3.94337180
C        6.67638540        8.38323810        4.89468340
C        7.60515460        5.81716390        3.90683190
C        8.35643500        6.65189350        4.88751680
C        7.54502360        7.59674150        2.19093550
C        8.45106000        8.47529600        3.14919150
C        5.65928990        5.71798210        5.89614000
C        6.66114170        6.60879110        6.61046400
C        5.88761060        7.44017190        7.60586100
C        6.63480440        8.41533340        8.42488220
C        7.52491970        5.72327750        7.55029730
C        8.39343650        6.65757030        8.44778490
C        7.51984950        7.55313050        5.75722150
C        8.47922450        8.48366920        6.54862360
N        5.70690340        3.89464570        3.93852550
