&CONTROL
calculation = 'scf'
restart_mode = 'from_scratch'
verbosity = 'high'
wf_collect = .true.
pseudo_dir='/home/arpank/pseudopotentials/'
tprnfor = .true.
/
&SYSTEM
ibrav = 0
ecutwfc = 60
tot_charge = -1
nspin = 2
tot_magnetization = 2.0
nbnd = 480
nat = 215
ntyp = 2
input_dft = 'PBE0'
exx_fraction = 0.18
ecutfock = 120
/
&ELECTRONS
conv_thr = 1D-8
diago_full_acc=.true.
mixing_beta = 0.3
/
&IONS
ion_dynamics='bfgs'
ion_positions='default'
/
K_POINTS gamma
ATOMIC_SPECIES
C  12.01099968  C_ONCV_PBE-1.0.upf
N  14.00699997  N_ONCV_PBE-1.0.upf
CELL_PARAMETERS angstrom
    10.65000000      0.00000000      0.00000000
     0.00000000     10.65000000      0.00000000
     0.00000000      0.00000000     10.65000000
ATOMIC_POSITIONS angstrom
C        9.35051970        9.28887940        9.27156290
C       10.21691600       10.11214900       10.14386500
C        9.32061560        0.44016530        0.41761176
C       10.19055200        1.26903280        1.32299250
C        0.43340864        9.31368800        0.43830777
C        1.27886330       10.14745600        1.38483860
C        0.41642117        0.47018068        9.27425340
C        1.32497870        1.37229060       10.11523300
C        9.33842560        9.30348710        2.26553730
C       10.21693000       10.14612100        3.11086650
C        9.34829050        0.38885725        3.99073630
C       10.16091900        1.30408200        4.89054890
C        0.45762936        9.32701600        3.99086140
C        1.32398350       10.26356600        4.86611640
C        0.45556174        0.36475232        2.18768920
C        1.29567870        1.23880870        3.07840130
C        9.37176870        9.32905770        5.76663620
C       10.20072400       10.23881200        6.66080600
C        9.37503500        0.46519032        7.48064390
C       10.20822100        1.34038780        8.45653120
C        0.44809236        9.26584060        7.51706030
C        1.31499780       10.25862900        8.37265650
C        0.48312154        0.47718565        5.79737130
C        1.35681680        1.41772780        6.64366410
C        9.29366670        2.23689300        9.28906940
C       10.15669800        3.08261790       10.22304600
C        9.25654280        3.99680360        0.40186597
C       10.19065200        4.81002770        1.34882410
C        0.42722509        2.14126660        0.40199950
C        1.32134110        3.15471390        1.27753550
C        0.44827459        3.98689520        9.43358820
C        1.34395250        4.84697920       10.26048500
C        9.32090720        2.25799950        2.18790340
C       10.20494800        3.16256370        3.02299270
C        9.30139390        4.05095260        3.99991020
C       10.17488500        4.86315720        4.90074850
C        0.47307485        2.19066800        3.95641720
C        1.28515050        3.12796060        4.86878400
C        0.39599598        3.92679630        2.24618650
C        1.33080550        4.87683590        3.13493450
C        9.28416290        2.20443360        5.70068180
C       10.18875100        3.09973810        6.61436090
C        9.38820440        4.01501980        7.49405270
C       10.21954500        4.88333930        8.44004150
C        0.45673492        2.15812900        7.57060620
C        1.31089840        3.10887530        8.43494850
C        0.35178654        4.00734790        5.69265560
C        1.28942350        4.84476240        6.58900620
C        9.35310080        5.77952850        9.32068970
C       10.22781600        6.69920190       10.22098100
C        9.34013880        7.49795240        0.48362145
C       10.20399900        8.35564190        1.29832190
C        0.44540418        5.75944510        0.46635384
C        1.36278700        6.55907170        1.26992250
C        0.45831128        7.55724440        9.34568620
C        1.39806600        8.38722140       10.14195900
C        9.34992740        5.77838670        2.12944020
C       10.21537200        6.66495130        3.12402130
C        9.37376900        7.54535530        4.00447670
C       10.28803900        8.48455130        4.86702860
C        0.43198856        5.69260510        3.96791760
C        1.32915980        6.67846090        4.90657080
C        0.48045150        7.60483310        2.18469250
C        1.38996540        8.45064110        3.12440740
C        9.30905260        5.84761880        5.77716500
C       10.17433700        6.68883490        6.66832470
C        9.36449300        7.56877190        7.55102780
C       10.27284800        8.46777660        8.38765290
C        0.48277210        5.74960990        7.52499540
C        1.33737930        6.67005220        8.48482470
C        0.45386055        7.60215510        5.77249870
C        1.34145020        8.39361460        6.60966220
C        2.17825610        9.39767570        9.29226590
C        3.10510960       10.21594500       10.17371400
C        2.25377380        0.39574769        0.48031991
C        3.15253350        1.30974590        1.38547070
C        3.94150490        9.25963700        0.42455820
C        4.83649940       10.16466500        1.37814700
C        3.94443640        0.42746751        9.29849320
C        4.86984990        1.35117940       10.17398400
C        2.22466430        9.29444730        2.20089550
C        3.14654350       10.15160100        3.03771360
C        2.21329560        0.50945377        3.99008490
C        3.03541410        1.29766780        4.92183450
C        3.94505630        9.24769150        4.04539730
C        4.79716420       10.19111100        4.88985440
C        3.95804710        0.41734291        2.23448800
C        4.84793870        1.31592990        3.14905940
C        2.24340840        9.35091700        5.81838640
C        3.12442140       10.16787000        6.70122650
C        2.26488850        0.52429598        7.56563990
C        3.13236720        1.39733800        8.50417190
C        4.01552450        9.33016760        7.55655930
C        4.80672090       10.20714000        8.41502190
C        3.93859730        0.36833523        5.73882760
C        4.80959680        1.33377920        6.63247860
C        2.31647070        2.23433710        9.33769650
C        3.06787060        3.19835130       10.20648900
C        2.23124760        3.99936120        0.41734453
C        3.09539700        4.87736620        1.28421650
C        4.02228880        2.20453000        0.42202902
C        4.93953210        3.09515350        1.33387400
C        3.91913740        4.03251650        9.32033070
C        4.87694090        4.89512580       10.28810100
C        2.22286500        2.19755200        2.18166260
C        3.08392790        3.10626420        3.14401780
C        2.23656560        3.91406260        3.96302630
C        3.13365660        4.91450310        4.79248350
C        3.88204500        2.21358120        4.09672330
C        4.86599670        3.19819830        4.94886890
C        4.07080650        3.96161520        2.23666120
C        4.99126920        4.90566040        3.13771410
C        2.18384840        2.22801200        5.72044630
C        3.12357680        3.15033170        6.67814590
C        2.25169430        3.95247310        7.47004990
C        3.07542260        4.88661740        8.39206410
C        3.96902810        2.21466840        7.56779620
C        4.92552980        3.11076310        8.36523050
C        4.02534800        4.04910070        5.80042630
C        4.93335170        4.91802400        6.67402810
C        2.25634130        5.83325440        9.26237950
C        3.13293370        6.66390870       10.13239300
C        2.18249000        7.44679610        0.44800202
C        3.03955240        8.44155960        1.39672710
C        3.99298180        5.76920920        0.43972981
C        4.87493430        6.65799000        1.40618030
C        4.01709910        7.59091280        9.40218830
C        4.82016350        8.45679510       10.18958700
C        2.23018790        5.70044170        2.19183180
C        3.09019060        6.65638250        3.08393060
C        2.18072440        7.53982250        3.97704930
C        3.06959350        8.45900150        4.90561320
C        3.98189560        5.71858800        4.02820550
C        4.94671740        6.64855500        4.82925410
C        3.95808340        7.55932040        2.25866410
C        4.86052910        8.42891280        3.14992250
C        2.25547350        5.76110710        5.71711050
C        3.09355550        6.68200450        6.63170780
C        2.23776850        7.58308190        7.53108450
C        3.12100970        8.42520550        8.50757290
C        3.99829410        5.84547700        7.46060110
C        4.92801610        6.71636640        8.44930900
C        3.98524480        7.54893920        5.70507330
C        4.91991000        8.35637750        6.64129450
C        5.77350660        9.34646690        9.29524020
C        6.61198350       10.15677900       10.19409600
C        5.72080650        0.40187196        0.52219247
C        6.59059390        1.25016250        1.32509300
C        7.50385810        9.29791650        0.42152080
C        8.45793080       10.19438500        1.38565210
C        7.56421750        0.45203715        9.29434450
C        8.40635320        1.37165400       10.15697900
C        5.75180200        9.27762860        2.20740520
C        6.71578020       10.23443500        3.11440980
C        5.70672360        0.40559797        4.03803270
C        6.57917080        1.32308130        4.83737530
C        7.49555710        9.30564760        4.01333120
C        8.48971880       10.23181100        4.87372340
C        7.57801170        0.44720394        2.18395740
C        8.40494640        1.35026340        3.19779620
C        5.71839820        9.29071930        5.74739200
C        6.67376920       10.19455400        6.62601620
C        5.72703200        0.44936539        7.56320670
C        6.66467940        1.37771040        8.43609490
C        7.54262360        9.30425860        7.53169630
C        8.41054860       10.22440400        8.39973170
C        7.54300400        0.50109052        5.71465940
C        8.40435590        1.29231230        6.62045840
C        5.80283380        2.13873880        9.32288790
C        6.73297010        3.13377370       10.15518400
C        5.84591730        4.00598820        0.46846264
C        6.68320580        4.85435360        1.39900090
C        7.48027790        2.26300790        0.42703226
C        8.39076420        3.07371020        1.39593460
C        7.60226050        3.97788440        9.35738060
C        8.47281250        4.82617630       10.34302900
C        5.75972590        2.21111040        2.17683570
C        6.63902820        3.03609320        3.13357990
C        7.45183220        2.19458690        4.03584890
C        8.39127960        3.11129460        4.94584220
C        7.54383050        3.95040170        2.25177940
C        8.39554510        4.89827030        3.09658400
C        5.76528510        2.26171450        5.81898740
C        6.67717060        3.07664930        6.72702800
C        5.78585920        4.04052100        7.56618110
C        6.63745310        4.93135780        8.48101290
C        7.51483630        2.23632660        7.53255390
C        8.49289380        3.16079560        8.38279100
C        7.62543320        3.92144110        5.89120200
C        8.44169230        4.93758050        6.69258910
C        5.75646670        5.76005570        9.36473760
C        6.64648990        6.68732090       10.23523500
C        5.83548270        7.56311110        0.45254672
C        6.66222020        8.42786610        1.28086680
C        7.55671300        5.78603050        0.40892437
C        8.49036400        6.63578980        1.32483740
C        7.52846890        7.62276520        9.34910490
C        8.40361320        8.41259270       10.21670800
C        5.77170370        5.78401700        2.29751920
C        6.67813060        6.66252230        3.08566230
C        5.71000070        7.57405750        3.95703560
C        6.66017810        8.47669060        4.83866990
C        7.69351240        5.76495830        4.01143870
C        8.47797050        6.69080090        4.80817370
C        7.57230390        7.56250340        2.20957300
C        8.44928590        8.40887810        3.12968230
C        5.72010050        5.85877240        5.80750590
C        6.69373690        6.68640440        6.70912440
C        5.82029050        7.54634440        7.54637970
C        6.65312850        8.45659630        8.47781390
C        7.49990630        5.80716390        7.54575750
C        8.41560510        6.70418400        8.49867510
C        7.55153860        7.56064580        5.76701440
C        8.41221170        8.47683180        6.64442740
N        5.63225860        3.85022870        3.94144380
