&CONTROL
calculation = 'scf'
restart_mode = 'from_scratch'
verbosity = 'high'
wf_collect = .true.
pseudo_dir='/home/arpank/pseudopotentials/'
tprnfor = .true.
/
&SYSTEM
ibrav = 0
ecutwfc = 60
tot_charge = -1
nspin = 2
tot_magnetization = 2.0
nbnd = 480
nat = 215
ntyp = 2
input_dft = 'PBE0'
exx_fraction = 0.18
ecutfock = 120
/
&ELECTRONS
conv_thr = 1D-8
diago_full_acc=.true.
mixing_beta = 0.3
/
&IONS
ion_dynamics='bfgs'
ion_positions='default'
/
K_POINTS gamma
ATOMIC_SPECIES
C  12.01099968  C_ONCV_PBE-1.0.upf
N  14.00699997  N_ONCV_PBE-1.0.upf
CELL_PARAMETERS angstrom
    10.65000000      0.00000000      0.00000000
     0.00000000     10.65000000      0.00000000
     0.00000000      0.00000000     10.65000000
ATOMIC_POSITIONS angstrom
C        9.33862320        9.27324460        9.35298400
C       10.13903200       10.23774400       10.18324200
C        9.37252610        0.41209861        0.41364237
C       10.16241800        1.28108560        1.33281170
C        0.41418243        9.30251390        0.43479314
C        1.24051480       10.20437500        1.38644260
C        0.42834074        0.48090121        9.24847620
C        1.28523260        1.24904420       10.12003900
C        9.26671310        9.31792830        2.21231210
C       10.12029800       10.21120700        3.11317160
C        9.28706410        0.46626269        4.04485780
C       10.17161600        1.26178980        4.96007010
C        0.46008797        9.37740620        3.95967530
C        1.33671360       10.20905400        4.96865440
C        0.40884313        0.39907932        2.21231390
C        1.26352460        1.32114360        3.04400800
C        9.30513450        9.32747900        5.77885080
C       10.24002200       10.18648000        6.68460710
C        9.31921330        0.42400300        7.51945070
C       10.21335400        1.34353580        8.35541840
C        0.42593156        9.24399070        7.51878990
C        1.35506540       10.28332000        8.34820240
C        0.50477665        0.46105850        5.79166050
C        1.25725170        1.36809110        6.63747600
C        9.31345500        2.18732470        9.29636940
C       10.25711500        3.06457000       10.20058200
C        9.26923380        3.96399040        0.42924130
C       10.12790600        4.83729490        1.28554510
C        0.41167824        2.17042010        0.47355066
C        1.32080190        3.13321590        1.31635700
C        0.44887774        3.99782440        9.27918400
C        1.33293290        4.88906950       10.15675500
C        9.33405130        2.25842180        2.27236730
C       10.17374000        3.12761070        3.09577660
C        9.26484040        3.93400960        3.96867200
C       10.15038400        4.85097030        4.88944850
C        0.35619920        2.22556710        3.97081950
C        1.31611510        3.11971180        4.91195070
C        0.39659301        3.95875900        2.15702870
C        1.29132490        4.89015020        3.04517620
C        9.35120340        2.17800310        5.77708980
C       10.17211300        3.19686050        6.71632480
C        9.26060860        4.01461360        7.64963580
C       10.14199200        4.89687310        8.51124230
C        0.40318963        2.25124530        7.59831980
C        1.43150840        3.07094020        8.36971310
C        0.47226112        4.01463060        5.74947490
C        1.41891930        4.93033250        6.66034580
C        9.27213350        5.84178990        9.28986090
C       10.17453200        6.61225180       10.20048900
C        9.32134500        7.50938510        0.48830947
C       10.18385500        8.39567750        1.32185460
C        0.41526646        5.70825690        0.40418766
C        1.29594330        6.60177320        1.32579820
C        0.46563736        7.50353300        9.27011050
C        1.33189900        8.41248930       10.14964300
C        9.35603780        5.75511030        2.17437960
C       10.26246800        6.64400630        3.11098120
C        9.40522140        7.59017570        4.02235720
C       10.21699800        8.48778940        4.84479790
C        0.49128210        5.75836830        4.00779960
C        1.30710810        6.64435070        4.82979510
C        0.43409324        7.53526980        2.20206870
C        1.34089670        8.36346760        3.15532180
C        9.32850130        5.81694010        5.75807470
C       10.18196100        6.63589800        6.70206980
C        9.31676110        7.59016890        7.47762670
C       10.19520800        8.41107930        8.35797690
C        0.39763917        5.78791940        7.58887230
C        1.30796690        6.68370840        8.50082810
C        0.49035218        7.54720450        5.71863230
C        1.36665190        8.39849130        6.67952490
C        2.24139360        9.32970370        9.34830110
C        3.07720170       10.19434000       10.25378600
C        2.14896990        0.42948203        0.42677672
C        3.05149220        1.36603580        1.28233090
C        3.94621290        9.30005100        0.45135805
C        4.82054740       10.17701500        1.35500450
C        3.94028040        0.43306922        9.30819100
C        4.91972520        1.45456480       10.28394100
C        2.18496080        9.26432070        2.16215910
C        3.02379600       10.18993500        3.02785560
C        2.24011360        0.45310086        3.94181430
C        3.09841840        1.38303470        4.87775980
C        3.93087550        9.24647530        3.93739150
C        4.91663140       10.16704900        4.88991070
C        3.98077970        0.42115619        2.16856910
C        4.86493340        1.29918470        3.06144350
C        2.21967700        9.28006260        5.77964700
C        3.15359800       10.20852800        6.69614250
C        2.21968270        0.45371418        7.52375090
C        3.07570170        1.37755750        8.39333590
C        4.06420580        9.34832410        7.49148100
C        4.87497160       10.18669500        8.41897250
C        4.04999490        0.43098582        5.79914520
C        4.88309540        1.36765810        6.73705390
C        2.24449820        2.21247310        9.40769890
C        3.08169340        3.08454410       10.24883800
C        2.16605080        3.99476510        0.39360971
C        3.10152370        4.86499720        1.30117160
C        3.95554830        2.18131790        0.51166566
C        4.88095610        3.12073530        1.32333070
C        3.99114840        3.94752400        9.26875890
C        4.90377130        4.78832230       10.18615800
C        2.21294190        2.22709040        2.19046760
C        2.96335370        3.12970310        3.12985050
C        2.16013330        4.03400090        3.98110570
C        3.07352960        4.88211570        4.82029000
C        4.03190190        2.21993280        4.00426230
C        4.91230390        3.13874780        4.78262530
C        3.93156890        4.04936850        2.19326960
C        4.89513150        4.88503820        3.10229380
C        2.27185960        2.25969740        5.79632810
C        3.19335170        3.19863720        6.55849670
C        2.21412950        4.12156390        7.45044900
C        3.14602660        4.90970630        8.40811430
C        3.98804010        2.24008970        7.53118300
C        4.86311950        3.14317560        8.47013250
C        4.05691930        4.05300530        5.68577660
C        4.92751730        4.84904100        6.69439220
C        2.25623740        5.72950180        9.24335120
C        3.18020230        6.66677750       10.22894000
C        2.22129670        7.51375390        0.36590404
C        3.15223340        8.42105730        1.30263040
C        4.04034660        5.79156700        0.40260559
C        4.93081970        6.64722050        1.38118350
C        4.03179370        7.52167820        9.36810410
C        4.88443220        8.41202530       10.25588100
C        2.22507380        5.78870830        2.24064240
C        3.17460030        6.65588750        3.05742360
C        2.23882760        7.58054390        3.97757830
C        3.17112850        8.43416450        4.87733930
C        4.01457110        5.77318980        3.97884370
C        4.93716090        6.67226310        4.93486930
C        4.06359660        7.58187790        2.27030650
C        4.85236990        8.39861350        3.08357930
C        2.20230990        5.74615580        5.81098540
C        3.07846620        6.60416150        6.58996140
C        2.19838990        7.59171690        7.59329480
C        3.19287730        8.49985980        8.41553000
C        4.02998570        5.71782570        7.55402670
C        4.88278650        6.69094590        8.42659090
C        4.00986390        7.56755310        5.73711270
C        4.83575540        8.37693730        6.62019990
C        5.78374270        9.33749620        9.29299370
C        6.63526350       10.20818400       10.22522100
C        5.79409440        0.39906428        0.39371818
C        6.64956390        1.31478700        1.30563970
C        7.54509070        9.32899240        0.46438980
C        8.47410910       10.22527800        1.33932160
C        7.58835300        0.47349977        9.37211800
C        8.44853490        1.28810540       10.26625200
C        5.70566930        9.31251980        2.24259550
C        6.66350170       10.19833900        3.12029800
C        5.75378750        0.41296444        3.96409410
C        6.63160930        1.35560570        4.94392860
C        7.54786680        9.33871720        3.93542920
C        8.52974760       10.14837900        4.80342840
C        7.55853630        0.47249767        2.22510720
C        8.40397060        1.29437860        3.22615140
C        5.83991640        9.28414090        5.76894310
C        6.69602870       10.18657500        6.70854540
C        5.77842150        0.40619246        7.61974910
C        6.72373050        1.32272300        8.50537680
C        7.55028170        9.29307750        7.58618500
C        8.51774230       10.24845900        8.45803810
C        7.57675510        0.45520237        5.75036910
C        8.42081150        1.29550570        6.66168700
C        5.86595270        2.24961750        9.36736350
C        6.66815370        3.11286970       10.28022800
C        5.71955760        3.99902610        0.42270804
C        6.73857880        4.83892520        1.32585610
C        7.56193270        2.21040250        0.45161782
C        8.40653390        3.15084400        1.41032490
C        7.48283620        4.02839340        9.31219010
C        8.35009820        4.85539600       10.27399100
C        5.73319000        2.21615660        2.21619110
C        6.68010350        3.08087340        3.14620640
C        7.50398460        2.17143150        4.00271440
C        8.41208940        3.06634540        4.93528600
C        7.51422800        3.96722050        2.25278530
C        8.38604140        4.88958420        3.16120080
C        5.76370200        2.28642380        5.76966640
C        6.70593920        3.15342480        6.66863850
C        5.77540740        3.95588700        7.55788140
C        6.69843440        4.86988620        8.44617490
C        7.51677880        2.20535430        7.62580870
C        8.45885300        3.07447770        8.45922780
C        7.63169540        3.94452510        5.80610120
C        8.43500560        4.90187070        6.64896110
C        5.80032860        5.79746010        9.40072690
C        6.61840200        6.64864880       10.25817400
C        5.83758920        7.55141560        0.48276408
C        6.61300720        8.47202140        1.35428360
C        7.50973720        5.73080610        0.46269456
C        8.42758550        6.68309440        1.37023700
C        7.49019910        7.58030740        9.29106860
C        8.46266170        8.38029690       10.22934900
C        5.78248690        5.79838500        2.31118400
C        6.72769020        6.69303440        3.10982800
C        5.79491210        7.51130480        3.98974770
C        6.67433830        8.41856560        4.85148740
C        7.61995860        5.82191740        3.94181820
C        8.47286170        6.72946040        4.82741270
C        7.53046830        7.58120220        2.21802900
C        8.45872370        8.44429880        3.11835530
C        5.70272140        5.86374740        5.80840140
C        6.60760930        6.69775570        6.68994720
C        5.73772920        7.56126580        7.50205560
C        6.64783690        8.44256760        8.45486200
C        7.61228700        5.75556620        7.51698910
C        8.45921690        6.64975430        8.40998790
C        7.51861360        7.56327660        5.74098980
C        8.48044520        8.50505420        6.65028620
N        5.64295960        3.88816040        3.85716940
