&CONTROL
calculation = 'scf'
restart_mode = 'from_scratch'
verbosity = 'high'
wf_collect = .true.
pseudo_dir='/home/arpank/pseudopotentials/'
tprnfor = .true.
/
&SYSTEM
ibrav = 0
ecutwfc = 60
tot_charge = -1
nspin = 2
tot_magnetization = 2.0
nbnd = 480
nat = 215
ntyp = 2
input_dft = 'PBE0'
exx_fraction = 0.18
ecutfock = 120
/
&ELECTRONS
conv_thr = 1D-8
diago_full_acc=.true.
mixing_beta = 0.3
/
&IONS
ion_dynamics='bfgs'
ion_positions='default'
/
K_POINTS gamma
ATOMIC_SPECIES
C  12.01099968  C_ONCV_PBE-1.0.upf
N  14.00699997  N_ONCV_PBE-1.0.upf
CELL_PARAMETERS angstrom
    10.65000000      0.00000000      0.00000000
     0.00000000     10.65000000      0.00000000
     0.00000000      0.00000000     10.65000000
ATOMIC_POSITIONS angstrom
C        9.31833400        9.27292900        9.35152010
C       10.19790700       10.22672500       10.20290900
C        9.27887650        0.49622619        0.46499071
C       10.20499400        1.31504340        1.35845370
C        0.43592224        9.26507590        0.39408788
C        1.26981830       10.22091600        1.30484290
C        0.41929381        0.47495532        9.37921030
C        1.30816370        1.36373970       10.20041400
C        9.29201020        9.30252360        2.21682360
C       10.24611300       10.15227600        3.20179570
C        9.33471310        0.46921670        4.01957460
C       10.21065300        1.35465620        4.93541790
C        0.49678118        9.23458420        3.99001910
C        1.33796800       10.22781400        4.93748020
C        0.35726437        0.42409026        2.22697590
C        1.28472860        1.32718070        3.16367230
C        9.35437950        9.35979860        5.69942610
C       10.26420100       10.25805900        6.64827760
C        9.26850540        0.42912892        7.59950930
C       10.15867200        1.30757790        8.53512150
C        0.47387225        9.35164770        7.50141350
C        1.39863180       10.20810700        8.49851950
C        0.46503563        0.46863787        5.77659220
C        1.25989260        1.33901770        6.61986300
C        9.26002460        2.24497490        9.38236450
C       10.22649900        3.10778870       10.24043800
C        9.33215290        3.90851960        0.45297156
C       10.27510100        4.89594030        1.34553940
C        0.46095229        2.19168090        0.47621917
C        1.39478380        3.06981060        1.35288210
C        0.46307771        3.97958940        9.26377570
C        1.38263930        4.86387940       10.22489000
C        9.37226080        2.20664760        2.19828070
C       10.24317000        3.10026100        3.08996030
C        9.33569900        3.98678080        3.95106400
C       10.26039200        4.86820030        4.80932430
C        0.44999188        2.22078860        4.00284470
C        1.34808270        3.12536440        4.87515920
C        0.54451178        4.02049590        2.17165970
C        1.39527070        4.91054260        3.18538130
C        9.35697850        2.21929420        5.80177150
C       10.09622900        3.14550010        6.65947990
C        9.34323070        4.00110190        7.55441770
C       10.22033500        4.91412280        8.39186860
C        0.43807959        2.22199780        7.53922400
C        1.38414770        3.07980640        8.35482940
C        0.52865635        4.03314780        5.75959370
C        1.28526990        4.92629000        6.71025950
C        9.29405290        5.73315920        9.23685090
C       10.24128800        6.63038600       10.20921200
C        9.30700140        7.51562330        0.53263346
C       10.21204000        8.42396650        1.34818600
C        0.50269285        5.67440160        0.37332056
C        1.36238210        6.61359610        1.29326310
C        0.36756189        7.51858000        9.27415080
C        1.32191070        8.34854650       10.20561300
C        9.36909510        5.75029390        2.22679960
C       10.22540300        6.69925700        3.09468020
C        9.27572590        7.56510240        3.97406610
C       10.18805200        8.43398420        4.86496000
C        0.39214951        5.76541690        4.00112630
C        1.38923350        6.63258420        4.92243890
C        0.46326621        7.52882830        2.19193510
C        1.32876860        8.41218890        3.07332890
C        9.31774910        5.79126220        5.77557390
C       10.15760400        6.61217480        6.63077040
C        9.24194180        7.52229110        7.55413390
C       10.16371100        8.47759080        8.45837680
C        0.46450039        5.77771340        7.51558020
C        1.26820720        6.68016740        8.46398360
C        0.47479386        7.50439150        5.78714880
C        1.33225170        8.39632400        6.67288610
C        2.23807630        9.28726960        9.32320610
C        3.04772800       10.18146100       10.22547300
C        2.17029310        0.41371144        0.48143643
C        3.08670010        1.30451960        1.31584360
C        3.97770050        9.35948900        0.50260772
C        4.86038910       10.16681500        1.30817480
C        3.95161940        0.45814365        9.33571550
C        4.84739000        1.38590530       10.15139400
C        2.18453340        9.36755740        2.23668600
C        3.11527070       10.20576500        3.10919970
C        2.20032510        0.46941109        4.03381870
C        3.07297530        1.34158480        4.95241640
C        3.96301330        9.32495860        4.02299640
C        4.84372060       10.26191400        4.81650920
C        3.98001770        0.45827385        2.21988210
C        4.84483310        1.34619680        3.06054820
C        2.21274740        9.40716590        5.79204760
C        3.10750850       10.29860600        6.62546180
C        2.23305910        0.50675350        7.49634480
C        3.08961990        1.36414560        8.36064360
C        3.99134130        9.31939030        7.58004420
C        4.91467960       10.19175500        8.47196940
C        4.01277590        0.53564631        5.84239580
C        4.94668100        1.44339350        6.67094980
C        2.22942650        2.21874880        9.32659560
C        3.14575550        3.14969120       10.17263900
C        2.27956850        4.02777840        0.47397878
C        3.09192980        4.88264950        1.32493000
C        3.99837760        2.13928520        0.45844771
C        4.86205040        3.11773510        1.27638450
C        3.93491610        3.96941150        9.28547330
C        4.88540230        4.89478780       10.20628700
C        2.21582660        2.21654100        2.10538670
C        3.10462240        3.06802280        3.10757040
C        2.09708210        4.03202920        4.02190430
C        3.11051470        4.87776110        4.80546780
C        4.01095160        2.12596000        4.00638290
C        4.80116300        3.17667860        4.83989770
C        3.94862130        4.00606840        2.25514530
C        4.85067190        4.84364300        3.12699240
C        2.20296710        2.31417730        5.76060590
C        3.08406150        3.14871080        6.62958030
C        2.22204700        3.92914490        7.53849520
C        3.11853140        4.98597660        8.48911660
C        4.03600320        2.26566100        7.49623450
C        4.92231880        3.16223490        8.37816250
C        4.11181450        4.05368440        5.70561120
C        4.98681830        4.89433860        6.56893990
C        2.26721750        5.73488990        9.29147540
C        3.05280010        6.60265140       10.17444800
C        2.25916830        7.55681050        0.43552138
C        3.08722850        8.50343470        1.36992410
C        4.04250830        5.75482800        0.45302483
C        4.80320530        6.62276790        1.46287630
C        3.93869460        7.53258110        9.26217030
C        4.77506000        8.47974970       10.16520700
C        2.17977470        5.72491800        2.26825390
C        3.07148640        6.74052930        3.09455750
C        2.18552010        7.48942350        4.02524800
C        3.09747130        8.43807190        4.88296730
C        4.04485500        5.76488280        3.94832440
C        4.92434170        6.71872450        4.94247940
C        3.97800470        7.63649300        2.27047950
C        4.89413260        8.43511000        3.14585500
C        2.19687590        5.79991890        5.82013670
C        3.13747050        6.68014290        6.65794930
C        2.22284880        7.49199040        7.58537000
C        3.10250490        8.43575990        8.44138730
C        3.98814050        5.77729790        7.51476900
C        4.83605280        6.68063270        8.47973890
C        4.02632670        7.57855780        5.74763400
C        4.86670500        8.41962230        6.65729800
C        5.77803490        9.29919680        9.33466270
C        6.63491880       10.17120700       10.20455900
C        5.77914440        0.44015067        0.42019358
C        6.67899640        1.34025580        1.32179460
C        7.51307700        9.27325780        0.45429564
C        8.41098110       10.23539900        1.31248460
C        7.48503680        0.46459227        9.33167090
C        8.43543220        1.31771870       10.20059300
C        5.87642310        9.32421360        2.19710950
C        6.69466780       10.15423600        3.02717980
C        5.79529040        0.39956364        3.90801260
C        6.59181250        1.35471450        4.82783080
C        7.62248480        9.36321130        4.00500410
C        8.41757430       10.22389400        4.86900770
C        7.53867370        0.47865403        2.24519670
C        8.43175680        1.35200490        3.07555890
C        5.74702240        9.36818390        5.78239080
C        6.71668350       10.14810500        6.63633140
C        5.77248030        0.50480082        7.58350090
C        6.65761360        1.32400410        8.51705330
C        7.55162530        9.23773490        7.47559220
C        8.40427100       10.21952500        8.41676310
C        7.57263300        0.44718990        5.78701160
C        8.46496220        1.33266820        6.67648110
C        5.82636660        2.19880690        9.31503980
C        6.65414110        3.06565100       10.12866400
C        5.73599610        3.93911020        0.45256184
C        6.63494160        4.81558940        1.31280630
C        7.58811790        2.24113790        0.45337411
C        8.48682970        3.09090510        1.37286300
C        7.49203730        4.00270510        9.27922460
C        8.43217370        4.83268070       10.20841900
C        5.76517010        2.16442750        2.19836330
C        6.62108160        3.09062870        3.11262680
C        7.61207890        2.22161200        3.99236950
C        8.42305040        3.04385440        4.94672510
C        7.52055870        3.93016250        2.22178050
C        8.42477420        4.90103310        3.08829520
C        5.74576740        2.27548160        5.76695480
C        6.65394870        3.11386400        6.68705980
C        5.77855870        4.04174590        7.54237530
C        6.64598750        4.83563990        8.47782260
C        7.58954290        2.16154140        7.58878050
C        8.42737640        3.07866030        8.42189290
C        7.58366080        3.85261700        5.90981430
C        8.42075100        4.89113900        6.63059710
C        5.77820290        5.80234730        9.36828540
C        6.59540170        6.66033480       10.19917200
C        5.67658720        7.49624920        0.39218611
C        6.62675660        8.42962620        1.35648360
C        7.52175940        5.69494230        0.41106410
C        8.43211400        6.59678980        1.33242380
C        7.52617760        7.50214110        9.32104350
C        8.37026650        8.40809150       10.21525700
C        5.81093500        5.75859500        2.25390320
C        6.75066490        6.65918360        3.10770060
C        5.75379190        7.51329060        4.00757490
C        6.72223710        8.45085650        4.88164420
C        7.60634250        5.88899080        3.87553760
C        8.46828450        6.69448500        4.86145150
C        7.53968050        7.50447740        2.22101740
C        8.41554160        8.39585900        3.09200060
C        5.77234130        5.82695660        5.80090950
C        6.69332950        6.66727210        6.61014930
C        5.75017730        7.47774290        7.61797500
C        6.64992690        8.44233940        8.44493230
C        7.48848000        5.71544710        7.50644180
C        8.36763100        6.67298870        8.43488370
C        7.63485520        7.57338610        5.65775870
C        8.46858120        8.44342320        6.63154910
N        5.67148100        3.88205780        3.90320200
