&CONTROL
calculation = 'scf'
restart_mode = 'from_scratch'
verbosity = 'high'
wf_collect = .true.
pseudo_dir='/home/arpank/pseudopotentials/'
tprnfor = .true.
/
&SYSTEM
ibrav = 0
ecutwfc = 60
tot_charge = -1
nspin = 2
tot_magnetization = 2.0
nbnd = 480
nat = 215
ntyp = 2
input_dft = 'PBE0'
exx_fraction = 0.18
ecutfock = 120
/
&ELECTRONS
conv_thr = 1D-8
diago_full_acc=.true.
mixing_beta = 0.3
/
&IONS
ion_dynamics='bfgs'
ion_positions='default'
/
K_POINTS gamma
ATOMIC_SPECIES
C  12.01099968  C_ONCV_PBE-1.0.upf
N  14.00699997  N_ONCV_PBE-1.0.upf
CELL_PARAMETERS angstrom
    10.65000000      0.00000000      0.00000000
     0.00000000     10.65000000      0.00000000
     0.00000000      0.00000000     10.65000000
ATOMIC_POSITIONS angstrom
C        9.30918140        9.31580640        9.34136790
C       10.10548100       10.19006700       10.14932300
C        9.29050420        0.45487149        0.45155407
C       10.16347700        1.32975790        1.36344580
C        0.41028198        9.32562180        0.37362161
C        1.36351180       10.23205700        1.29745410
C        0.39864514        0.49130704        9.35974920
C        1.28326680        1.37266730       10.20935700
C        9.32169940        9.28480220        2.23368180
C       10.14089500       10.15782300        3.17380240
C        9.21113310        0.44412855        4.00143210
C       10.18464200        1.33875310        4.84862520
C        0.38478813        9.30859450        4.03091570
C        1.30239590       10.26107500        4.88840800
C        0.47692127        0.46329507        2.21959970
C        1.33280030        1.30576270        3.13801000
C        9.30970780        9.31828420        5.82228710
C       10.22000800       10.26967800        6.63494760
C        9.31585540        0.43445140        7.55204160
C       10.19188800        1.33382410        8.41922550
C        0.47290895        9.31197010        7.54336410
C        1.35082990       10.22341300        8.43842620
C        0.42096364        0.41414872        5.79575220
C        1.37970320        1.32154600        6.62157280
C        9.32469620        2.22897850        9.24311030
C       10.19901100        3.19149740       10.17793200
C        9.34510170        4.01290270        0.44786143
C       10.16400900        4.91349610        1.33865670
C        0.40918932        2.27953010        0.44644093
C        1.32116250        3.09489290        1.32577730
C        0.39978398        4.00198450        9.25898080
C        1.33048610        4.86530250       10.20807600
C        9.34592940        2.24540360        2.18778600
C       10.19061200        3.23057290        3.11014650
C        9.23745290        4.01571130        4.01307170
C       10.20855000        4.84776240        4.86824640
C        0.39798689        2.26239160        3.97295000
C        1.31312940        3.06835840        4.89862140
C        0.50001945        4.02437350        2.21864140
C        1.40315680        4.82427010        3.08796150
C        9.28904860        2.22927650        5.73045610
C       10.14676900        3.09681170        6.65475530
C        9.26514460        4.02012580        7.51885030
C       10.22837900        4.91628310        8.36636850
C        0.44714369        2.23587640        7.53173150
C        1.30257150        3.12397810        8.40759540
C        0.41967754        3.97157570        5.78321360
C        1.33483650        4.78621430        6.68287490
C        9.31784380        5.78770730        9.31626820
C       10.19164500        6.65710010       10.25432000
C        9.31731560        7.50802460        0.49124862
C       10.16863500        8.44559920        1.26036660
C        0.48330185        5.80139070        0.39136716
C        1.32627120        6.62688360        1.42388170
C        0.46077414        7.48713200        9.26141790
C        1.31537940        8.38145730       10.19973200
C        9.33516480        5.80169390        2.19769720
C       10.20803100        6.69840490        3.07194600
C        9.29850300        7.61024800        3.99943650
C       10.18880000        8.39443040        4.92049510
C        0.45498896        5.74202030        3.94590840
C        1.42082560        6.61464030        4.84715960
C        0.43353049        7.57274190        2.24696880
C        1.32332930        8.31678910        3.04759800
C        9.41257800        5.77142520        5.78003020
C       10.28298600        6.68130880        6.59217840
C        9.37254580        7.60186870        7.52423180
C       10.21601600        8.37569080        8.44641670
C        0.41819749        5.75962770        7.48969240
C        1.34261600        6.62761190        8.49394680
C        0.45987488        7.57027370        5.76475470
C        1.38649270        8.43172140        6.62989270
C        2.25456550        9.26157060        9.37450950
C        3.13216880       10.20797500       10.18069600
C        2.24247490        0.48188761        0.41003202
C        3.06514820        1.27305170        1.35764830
C        3.99977580        9.38477610        0.48648509
C        4.89007450       10.19238700        1.32123890
C        3.96763050        0.40020124        9.30761910
C        4.87794870        1.40901090       10.19190900
C        2.16831040        9.30308780        2.24640910
C        3.07356640       10.25575200        3.03531280
C        2.24328430        0.48798824        3.96764000
C        3.16009870        1.28447960        4.92444150
C        3.98297480        9.33234660        4.00301060
C        4.91038170       10.14928000        4.89645900
C        3.96432330        0.45057061        2.09258270
C        4.79669400        1.25146440        3.08285570
C        2.24720710        9.32560630        5.76556870
C        3.14945050       10.19127600        6.68417210
C        2.23066810        0.48015447        7.47859830
C        3.13796870        1.30899530        8.41809850
C        4.05914580        9.29998470        7.56377640
C        4.81604310       10.18551900        8.43389970
C        4.08877790        0.49526334        5.85904410
C        4.89366200        1.28279200        6.64770750
C        2.13586440        2.30407740        9.27544020
C        3.15266110        3.05504840       10.17660000
C        2.21431160        4.02496960        0.43640234
C        3.08402070        4.90529700        1.32739590
C        3.96430870        2.29391350        0.43457836
C        4.84617030        3.12232220        1.31262750
C        3.99555450        3.99667190        9.31677540
C        4.85272260        4.93405990       10.18428900
C        2.30420620        2.20856520        2.23012610
C        3.07995830        3.07139860        3.19985180
C        2.23282120        3.95577750        4.07987470
C        3.14965610        4.81609020        4.90665550
C        3.97788540        2.20900690        4.02188680
C        4.88339520        3.03323200        4.84968020
C        3.97479650        3.94573240        2.23657120
C        4.80918680        4.91264610        3.18430610
C        2.25335220        2.18677810        5.74188230
C        3.11398590        3.06714550        6.62110300
C        2.22045530        3.97717690        7.54258920
C        3.10440670        4.87449870        8.41682670
C        4.01505540        2.16968040        7.56328090
C        4.91209690        3.04931070        8.48803010
C        4.02738150        3.94598740        5.80687160
C        4.90832350        4.86312860        6.66754730
C        2.22771320        5.76120860        9.31245680
C        3.06536890        6.67202570       10.19338900
C        2.21959110        7.52396690        0.41376498
C        3.11171100        8.39894610        1.27252260
C        4.03509810        5.82187330        0.42072067
C        4.90894130        6.64779880        1.31583840
C        3.98829780        7.51008390        9.30853570
C        4.90766050        8.45402710       10.19579900
C        2.31468740        5.75270450        2.23711180
C        3.14726980        6.55065880        3.10744020
C        2.18547260        7.55804770        4.01759370
C        3.10787480        8.45642630        4.81251230
C        4.00088120        5.69127660        4.00365610
C        4.94221190        6.72961940        4.94018430
C        4.01082000        7.55058530        2.15070260
C        4.83740950        8.38665750        3.07385370
C        2.28356000        5.72901220        5.86493560
C        3.15191870        6.63511940        6.69178260
C        2.20693090        7.46060490        7.58171870
C        3.08930740        8.44196310        8.40990590
C        3.94240770        5.75959870        7.54143710
C        4.85484200        6.67634060        8.45653930
C        3.97392310        7.56046200        5.75502210
C        4.93018630        8.39476390        6.65827300
C        5.72574620        9.32282800        9.30382690
C        6.61023710       10.19812300       10.12614100
C        5.71002200        0.41655020        0.40042411
C        6.67960510        1.36577250        1.27514650
C        7.50020620        9.31102520        0.37892299
C        8.41063730       10.19732800        1.31498950
C        7.51192770        0.42608762        9.30564250
C        8.43863870        1.38084520       10.17294000
C        5.68805730        9.30455760        2.18904730
C        6.65248590       10.25559900        3.07120410
C        5.79280860        0.47588293        3.94588540
C        6.64107860        1.29345390        4.91167520
C        7.57669940        9.29237590        4.00868690
C        8.43484640       10.17680100        4.92002730
C        7.52147720        0.41219658        2.19277040
C        8.35836470        1.31964480        3.14353350
C        5.77260540        9.23589370        5.79032270
C        6.60667400       10.15295500        6.68379600
C        5.76028550        0.45173185        7.50272330
C        6.64892960        1.31592000        8.34833370
C        7.55350830        9.33001600        7.62253110
C        8.49666090       10.16342300        8.47234730
C        7.46603340        0.38973202        5.76785980
C        8.40223780        1.32891290        6.63391200
C        5.84284890        2.31322140        9.40102290
C        6.70532730        3.15351160       10.19429200
C        5.73678220        4.09153880        0.40613232
C        6.68408950        4.92494150        1.44156390
C        7.55272270        2.24720920        0.43629453
C        8.35791520        3.08547620        1.33889100
C        7.53913910        3.98905450        9.36963400
C        8.39152510        4.84255830       10.23068600
C        5.78038930        2.17278920        2.23500180
C        6.67206140        3.07914610        3.09850880
C        7.51019170        2.21649700        4.00861050
C        8.37247290        3.13969000        4.86828240
C        7.51563610        3.96468510        2.22655950
C        8.43848390        4.87454180        3.08969830
C        5.80433360        2.27427790        5.73721530
C        6.57754440        3.11435890        6.57227760
C        5.83477650        3.96673440        7.57363480
C        6.73102270        4.90834940        8.48201950
C        7.51598650        2.16729670        7.58384890
C        8.49092170        3.14125080        8.35145420
C        7.56490510        3.92636000        5.85389880
C        8.47913480        4.95367360        6.61247530
C        5.82086990        5.76265480        9.33752510
C        6.68614240        6.70681740       10.24631200
C        5.78329430        7.50793530        0.41669383
C        6.62021980        8.45618740        1.32512760
C        7.53319470        5.85078110        0.46387534
C        8.42360810        6.65969390        1.27098010
C        7.55905180        7.65007580        9.34621860
C        8.38607430        8.44961610       10.26854900
C        5.71648130        5.76847150        2.31741470
C        6.70465770        6.70736370        3.05599420
C        5.79833750        7.58243520        3.95998200
C        6.73867570        8.49087740        4.87805210
C        7.67939580        5.87012070        4.04568380
C        8.49180830        6.61548910        4.96287250
C        7.50155470        7.60722570        2.20248890
C        8.45253640        8.39750440        3.10873230
C        5.77579970        5.88210190        5.87873250
C        6.60994270        6.60639380        6.76820800
C        5.74076640        7.49797500        7.52003730
C        6.63181810        8.45756570        8.46983740
C        7.60416640        5.73816050        7.56864940
C        8.51267380        6.68598490        8.42228520
C        7.58350330        7.52714640        5.85448980
C        8.44426730        8.42294590        6.62250980
N        5.67683760        3.94619910        3.93551180
