&CONTROL
calculation = 'scf'
restart_mode = 'from_scratch'
verbosity = 'high'
wf_collect = .true.
pseudo_dir='/home/arpank/pseudopotentials/'
tprnfor = .true.
/
&SYSTEM
ibrav = 0
ecutwfc = 60
tot_charge = -1
nspin = 2
tot_magnetization = 2.0
nbnd = 480
nat = 215
ntyp = 2
input_dft = 'PBE0'
exx_fraction = 0.18
ecutfock = 120
/
&ELECTRONS
conv_thr = 1D-8
diago_full_acc=.true.
mixing_beta = 0.3
/
&IONS
ion_dynamics='bfgs'
ion_positions='default'
/
K_POINTS gamma
ATOMIC_SPECIES
C  12.01099968  C_ONCV_PBE-1.0.upf
N  14.00699997  N_ONCV_PBE-1.0.upf
CELL_PARAMETERS angstrom
    10.65000000      0.00000000      0.00000000
     0.00000000     10.65000000      0.00000000
     0.00000000      0.00000000     10.65000000
ATOMIC_POSITIONS angstrom
C        9.34616850        9.34478280        9.33992210
C       10.23179500       10.23458200       10.19714100
C        9.31081920        0.35820054        0.42564146
C       10.17502300        1.22147410        1.30959980
C        0.47824676        9.36069100        0.46651382
C        1.30942550       10.24779000        1.41380330
C        0.50227034        0.46358017        9.34196120
C        1.30822550        1.32880930       10.23277400
C        9.33504580        9.29801560        2.22189850
C       10.24024000       10.22202000        3.13010430
C        9.29540730        0.48885655        4.01072830
C       10.20753400        1.32151500        4.86796580
C        0.46335286        9.32564680        4.02144000
C        1.38547310       10.18032300        4.88369720
C        0.42684710        0.53902846        2.23433650
C        1.34123790        1.32104520        3.11245100
C        9.31463640        9.36852990        5.78568160
C       10.19044400       10.11778600        6.71258070
C        9.28569450        0.49946179        7.53018010
C       10.21204600        1.33016590        8.46986660
C        0.48170599        9.32390290        7.55977420
C        1.33723130       10.13387000        8.42807060
C        0.47468032        0.41458002        5.72142680
C        1.34400060        1.30990820        6.64321910
C        9.36621530        2.25731450        9.30413510
C       10.20492100        3.11564510       10.25508200
C        9.25817790        3.90698900        0.49945169
C       10.18665500        4.90462140        1.32871060
C        0.43548374        2.20433430        0.44961673
C        1.33347040        3.09245350        1.29844870
C        0.44164114        4.07943770        9.37165630
C        1.32092140        5.01220170       10.23649100
C        9.38902360        2.13615870        2.25216500
C       10.18342500        3.00930320        3.05578910
C        9.33786040        3.88628270        4.02812250
C       10.14346900        4.83368530        4.85868160
C        0.49245765        2.16730420        3.97666550
C        1.32989250        3.08383530        4.85736120
C        0.39169286        3.92723860        2.25203520
C        1.34504720        4.89606660        3.07587230
C        9.31995580        2.21807960        5.77814040
C       10.26374000        3.08128900        6.74873790
C        9.35304520        3.98547380        7.47418170
C       10.20138400        4.99814390        8.42513780
C        0.42590370        2.18416160        7.55198850
C        1.29609070        3.10509880        8.40798660
C        0.38358229        4.04610380        5.72703980
C        1.36009150        4.90941610        6.65979680
C        9.32357060        5.82622040        9.37200680
C       10.21603200        6.65326890       10.25693200
C        9.26942500        7.58317030        0.41939588
C       10.21082000        8.43489530        1.35629760
C        0.34588138        5.79211190        0.43226198
C        1.35254330        6.65167350        1.32392390
C        0.43000603        7.54362070        9.40046070
C        1.36101060        8.51112340       10.25467100
C        9.31018600        5.74149080        2.27497880
C       10.14596400        6.70752610        3.12243780
C        9.37626720        7.57754400        3.93652340
C       10.21217300        8.41589140        4.89185460
C        0.42020839        5.78460540        3.98752700
C        1.34540030        6.67956180        4.88694370
C        0.37630664        7.50194870        2.19046780
C        1.31827780        8.41216030        3.08297750
C        9.38394000        5.81873290        5.68807360
C       10.19546000        6.71082060        6.63211600
C        9.29135990        7.52657310        7.55439200
C       10.19878200        8.45318140        8.52957730
C        0.51543208        5.80111000        7.53822140
C        1.40510810        6.74772240        8.43239220
C        0.48841751        7.52863190        5.73604630
C        1.36024390        8.37350050        6.62964050
C        2.21955980        9.30942260        9.28720370
C        3.09818310       10.25520400       10.14715800
C        2.20840980        0.48159787        0.44975444
C        3.16071910        1.22852610        1.24733150
C        3.91307870        9.32152640        0.47406599
C        4.85753950       10.20153700        1.34806640
C        4.00850920        0.45873759        9.28201310
C        4.83997460        1.37779630       10.20106300
C        2.25662500        9.29107420        2.20684990
C        3.11192600       10.13601900        3.10828860
C        2.27075930        0.35167299        3.97703860
C        3.12835070        1.19877500        4.89872380
C        4.05117080        9.33611570        3.96787730
C        4.89875220       10.18192300        4.82119040
C        3.96845260        0.46767688        2.25676210
C        4.85763480        1.34208610        3.11941980
C        2.19314520        9.30360660        5.80567060
C        3.10380430       10.15651600        6.60948160
C        2.24466040        0.42312079        7.53732860
C        3.09588700        1.29118390        8.41007880
C        4.02369760        9.29862060        7.55235690
C        4.87470710       10.27019600        8.46353710
C        4.05012620        0.40734250        5.76223450
C        4.92026660        1.34210010        6.66336810
C        2.21612920        2.28082650        9.33485250
C        3.08308320        3.11436970       10.26266300
C        2.17592700        4.09533290        0.34685051
C        3.08250380        4.84579460        1.25889170
C        3.94094250        2.18152620        0.41858185
C        4.92269320        3.04305250        1.36604760
C        3.97606700        3.93662650        9.34383260
C        4.87969930        4.89155560       10.19433000
C        2.15591380        2.24984770        2.22587580
C        3.09715850        3.07216470        3.10806780
C        2.20821080        3.93378410        3.93079520
C        3.06272030        4.93032370        4.81939000
C        3.93475360        2.25694240        3.97833330
C        4.86423620        3.11880970        4.84597150
C        4.02526180        4.02331540        2.12672560
C        4.85149920        4.79053540        3.07054180
C        2.29670240        2.21321020        5.81817270
C        3.10358290        3.08069330        6.65579400
C        2.20264360        4.05655430        7.50825700
C        3.10148660        4.85409870        8.45524600
C        3.98580710        2.28054830        7.59444110
C        4.83369320        3.12373980        8.45396460
C        3.99766120        4.06127260        5.72063930
C        4.90549220        4.92517120        6.65418710
C        2.16488360        5.74931920        9.34454230
C        3.12628280        6.73054140       10.17666700
C        2.21211480        7.56487790        0.37313174
C        3.08261380        8.42234250        1.24118690
C        3.94153620        5.78700520        0.46859268
C        4.79829430        6.66656720        1.33820350
C        4.05385030        7.56570830        9.35585760
C        4.86691440        8.46574050       10.23296500
C        2.22374790        5.79436980        2.17889580
C        3.17192670        6.59607510        3.15563300
C        2.24603680        7.57158450        4.02439510
C        3.15744460        8.50371080        4.85746100
C        4.03066870        5.76039260        3.99308810
C        4.85363850        6.65741650        4.91985210
C        4.03615550        7.51161450        2.19021630
C        4.90609710        8.39722530        3.13423110
C        2.24263790        5.75269280        5.78764870
C        3.11536990        6.69387450        6.73944300
C        2.18631110        7.56410540        7.56068530
C        3.09425960        8.46212970        8.51219600
C        4.05736930        5.74510690        7.60959180
C        4.92976590        6.66998440        8.31748500
C        4.04372180        7.55163930        5.71804600
C        4.85980930        8.45069640        6.64856240
C        5.74587940        9.33994250        9.34342010
C        6.56976910       10.25533000       10.23005900
C        5.68734530        0.46055078        0.38494901
C        6.64728010        1.34669230        1.27806860
C        7.52867010        9.28604160        0.52562149
C        8.41573000       10.18239500        1.34145310
C        7.55214270        0.41028816        9.32345070
C        8.39831530        1.26456500       10.22490800
C        5.76833600        9.28119180        2.27058900
C        6.63555780       10.19562400        3.14081910
C        5.71869030        0.40678891        3.96124960
C        6.64172940        1.36239690        4.83437550
C        7.60078290        9.34559950        3.96312210
C        8.46896970       10.21862800        4.84903940
C        7.54205930        0.39156176        2.24173550
C        8.40291960        1.26101280        3.10017540
C        5.71532840        9.38265190        5.75379980
C        6.65785430       10.20269400        6.65221760
C        5.83148510        0.49260745        7.56263150
C        6.72769440        1.35300650        8.42883860
C        7.50212990        9.31784710        7.54291680
C        8.40203250       10.19996700        8.40968090
C        7.59880060        0.45729836        5.75499270
C        8.41692860        1.36381400        6.60607390
C        5.77839160        2.24946240        9.31273970
C        6.65635990        3.11592870       10.26759300
C        5.76267410        3.91536200        0.42460174
C        6.62411570        4.87138470        1.37818630
C        7.55736970        2.15886650        0.48610939
C        8.41679030        3.12891360        1.38353450
C        7.49034190        4.07585640        9.26308590
C        8.41156730        4.85177330       10.17451400
C        5.75653220        2.19635570        2.25764380
C        6.59783270        3.07099210        3.12223560
C        7.55966990        2.15034010        4.00989170
C        8.39006920        3.06625200        4.81723000
C        7.47356490        4.00537900        2.27693500
C        8.43487560        4.88212090        3.16034590
C        5.73102820        2.29731450        5.73518360
C        6.63315610        3.23147950        6.71113100
C        5.81221100        3.95536540        7.53814130
C        6.63399380        4.89052510        8.38486190
C        7.58862620        2.29535220        7.55004120
C        8.46615280        3.11311900        8.42009780
C        7.59498910        3.80719010        5.77641020
C        8.41188710        4.81927280        6.57530510
C        5.76725600        5.73107440        9.27451430
C        6.66540260        6.65216660       10.22961700
C        5.77671160        7.60484620        0.44773900
C        6.65512800        8.36910640        1.37722760
C        7.49843410        5.73534420        0.41658511
C        8.43036680        6.68075460        1.33772500
C        7.54842350        7.55493220        9.35631490
C        8.41029670        8.48307850       10.20589500
C        5.76377600        5.69680480        2.24772910
C        6.69212830        6.59174300        3.15929150
C        5.78573570        7.52653880        3.94491130
C        6.71931040        8.39907410        4.81450600
C        7.62147730        5.77554000        4.02297250
C        8.42547880        6.63331130        4.82434480
C        7.54013220        7.49564010        2.23838290
C        8.47685920        8.44358440        3.14961210
C        5.74842450        5.92578840        5.85190830
C        6.70387290        6.72169890        6.65065410
C        5.75512640        7.53354180        7.55427720
C        6.66877000        8.44005110        8.55829630
C        7.55728360        5.75019040        7.50219940
C        8.36818200        6.68750650        8.41624030
C        7.57473270        7.57492990        5.73184360
C        8.45676700        8.46573230        6.58918830
N        5.69598840        3.91665730        3.84419620
