&CONTROL
calculation = 'scf'
restart_mode = 'from_scratch'
verbosity = 'high'
wf_collect = .true.
pseudo_dir='/home/arpank/pseudopotentials/'
tprnfor = .true.
/
&SYSTEM
ibrav = 0
ecutwfc = 60
tot_charge = -1
nspin = 2
tot_magnetization = 2.0
nbnd = 480
nat = 215
ntyp = 2
input_dft = 'PBE0'
exx_fraction = 0.18
ecutfock = 120
/
&ELECTRONS
conv_thr = 1D-8
diago_full_acc=.true.
mixing_beta = 0.3
/
&IONS
ion_dynamics='bfgs'
ion_positions='default'
/
K_POINTS gamma
ATOMIC_SPECIES
C  12.01099968  C_ONCV_PBE-1.0.upf
N  14.00699997  N_ONCV_PBE-1.0.upf
CELL_PARAMETERS angstrom
    10.65000000      0.00000000      0.00000000
     0.00000000     10.65000000      0.00000000
     0.00000000      0.00000000     10.65000000
ATOMIC_POSITIONS angstrom
C        9.29137470        9.30687310        9.35047280
C       10.16239600       10.19730800       10.26498000
C        9.33647290        0.50976666        0.41265163
C       10.20630800        1.36399400        1.31075330
C        0.44992464        9.30647990        0.45717422
C        1.37007000       10.26897700        1.41487070
C        0.43375729        0.42100119        9.31042900
C        1.36546520        1.28750960       10.20643400
C        9.32604970        9.34077470        2.15042890
C       10.23060100       10.20509200        3.04158220
C        9.29062570        0.36289258        3.91608170
C       10.21190400        1.27569460        4.81054380
C        0.47898252        9.31538300        3.97512200
C        1.33362670       10.18465900        4.88423050
C        0.44166222        0.53241545        2.24290820
C        1.38872340        1.38717260        3.15369660
C        9.27803100        9.30703020        5.82086790
C       10.19979400       10.19653200        6.68325380
C        9.31405180        0.40569995        7.51383960
C       10.17172500        1.28374220        8.48949200
C        0.47246098        9.29331200        7.55453020
C        1.30729910       10.29273700        8.39906460
C        0.42870465        0.36308265        5.76072420
C        1.34862410        1.33282260        6.65155380
C        9.34847260        2.12946660        9.35222210
C       10.17728900        3.10785030       10.22823300
C        9.30733100        4.04706570        0.50659203
C       10.15801600        4.85948260        1.31854580
C        0.52002278        2.24495850        0.46144884
C        1.40079110        3.09401570        1.31552800
C        0.41796792        4.02849560        9.26265500
C        1.32041250        4.85693790       10.14308800
C        9.26894100        2.21438050        2.24207140
C       10.23309400        3.17207700        3.07812400
C        9.28760030        3.99613250        4.01085540
C       10.26392900        4.92094260        4.92400410
C        0.38132815        2.17910770        3.96534810
C        1.35642620        3.02923410        4.87892440
C        0.48278594        3.93415700        2.12998010
C        1.30490050        4.84594950        3.06997830
C        9.35610200        2.21564580        5.67658430
C       10.25832600        3.08915220        6.62757410
C        9.36302210        4.01934600        7.48845310
C       10.23340800        4.83740530        8.42027310
C        0.45591046        2.21077180        7.63934770
C        1.37739140        3.11789610        8.48450470
C        0.48814972        3.94099970        5.76968670
C        1.35412130        4.82143630        6.60742640
C        9.22860000        5.77020090        9.31060400
C       10.19641900        6.67892520       10.19845000
C        9.31664900        7.48744320        0.46215838
C       10.17251800        8.41210930        1.32191980
C        0.43452773        5.75171050        0.40941556
C        1.22587320        6.65649450        1.32590940
C        0.41778116        7.57327200        9.37243970
C        1.37584960        8.46046320       10.19749500
C        9.25752940        5.75404440        2.20732100
C       10.21441100        6.57966990        3.15117050
C        9.34202430        7.58079480        3.94674690
C       10.21735600        8.38857770        4.97022710
C        0.43148088        5.68876370        3.98367750
C        1.34618680        6.61388160        4.96534090
C        0.40282218        7.50657610        2.19138410
C        1.33377070        8.45005790        3.10759280
C        9.35168080        5.74418060        5.83210990
C       10.20366300        6.59092930        6.72467730
C        9.30371940        7.58131290        7.63664650
C       10.20151800        8.44661150        8.43030060
C        0.45762805        5.68754720        7.51943140
C        1.33048550        6.62794270        8.39924510
C        0.39586417        7.53032460        5.79844940
C        1.33301560        8.45730120        6.68714240
C        2.20258890        9.24390640        9.25548800
C        3.12315110       10.18640600       10.19477500
C        2.22293100        0.53781168        0.45666123
C        3.13139180        1.32301430        1.31093190
C        3.95966340        9.32886520        0.46992852
C        4.83935220       10.16631100        1.33160010
C        3.97454100        0.37678017        9.34883870
C        4.96712920        1.33668170       10.26154800
C        2.14927350        9.27330350        2.20467980
C        3.12897330       10.12896000        3.15928150
C        2.35378400        0.38395403        4.03331990
C        3.09081410        1.29851510        4.80390200
C        4.09100350        9.27599190        4.06504920
C        4.83426160       10.27706500        4.84784950
C        4.01244810        0.46876692        2.22995490
C        4.89617000        1.30934990        3.14049920
C        2.17291970        9.28678620        5.76984280
C        3.07019100       10.13202500        6.67015480
C        2.18138540        0.45865524        7.58510450
C        3.06421290        1.35658820        8.49210640
C        4.00434540        9.31098630        7.45780350
C        4.83356400       10.20428800        8.45712550
C        4.02130720        0.46584512        5.71541050
C        4.85730450        1.36392200        6.65855820
C        2.26830010        2.17876100        9.34719230
C        3.10197900        3.14632610       10.25297800
C        2.14080150        3.98757070        0.43227662
C        3.08930040        4.91995800        1.34332710
C        4.00637720        2.21113850        0.48302323
C        4.84411320        3.14485960        1.34825520
C        4.04077870        4.02322060        9.33393450
C        4.98292870        4.88306670       10.18869300
C        2.24024060        2.18371170        2.20232250
C        3.00281330        3.10611670        3.03424700
C        2.12771280        4.00887510        4.03328140
C        3.12906160        4.93839060        4.92609920
C        4.02968140        2.26661250        4.02201420
C        4.96463340        3.15580560        4.86567190
C        3.98098670        4.01491560        2.22353890
C        4.89804210        4.90957770        3.11832560
C        2.28158290        2.21434750        5.77185700
C        3.10865590        3.10375590        6.66918880
C        2.27852340        3.93473790        7.57788430
C        3.07657920        4.85044590        8.43781050
C        4.01891880        2.20898260        7.59662010
C        4.93307330        3.09044750        8.33017250
C        3.96076440        3.98175780        5.76493800
C        4.90549870        4.85339230        6.62411360
C        2.23318110        5.66510210        9.27050990
C        3.12530190        6.60513100       10.24599200
C        2.20085250        7.54797830        0.43473556
C        3.02575520        8.43912340        1.31607230
C        3.97666900        5.75805030        0.48788578
C        4.86368670        6.61950110        1.30052110
C        3.99512050        7.53962220        9.26877310
C        4.88747190        8.36660560       10.24849900
C        2.25447840        5.83460110        2.19442250
C        3.09005540        6.68251800        3.07607160
C        2.16311460        7.49095520        3.97237160
C        3.09016390        8.36799020        4.88071470
C        3.87686230        5.79599570        3.95278020
C        4.88525710        6.61088110        4.88461670
C        3.99172360        7.56770990        2.21782710
C        4.83766200        8.41028100        3.18401380
C        2.30707460        5.77881490        5.79217130
C        3.10280860        6.59738240        6.62665910
C        2.25591610        7.55999260        7.52783130
C        3.03327550        8.46512560        8.37977110
C        3.99809260        5.77094020        7.51747390
C        4.89069420        6.67308890        8.38219100
C        3.99424900        7.55013960        5.75923180
C        4.90330750        8.44533590        6.61397860
C        5.76642380        9.25431670        9.35647290
C        6.60437730       10.22832000       10.21425400
C        5.79487400        0.43951996        0.51022365
C        6.64000350        1.33461030        1.29337390
C        7.53968490        9.37459860        0.43684989
C        8.40345190       10.27487700        1.33820530
C        7.48924460        0.50537156        9.33019820
C        8.43141510        1.31745060       10.22959700
C        5.76013470        9.29986000        2.20489660
C        6.68293890       10.24050200        3.05089080
C        5.82881320        0.42650413        3.95246140
C        6.64245400        1.34204370        4.85298750
C        7.59642310        9.33983090        4.03407820
C        8.42984670       10.23582400        4.92758810
C        7.50804490        0.51981090        2.20120500
C        8.39030870        1.39247400        3.03255680
C        5.82426130        9.34133870        5.70299000
C        6.66859050       10.27664100        6.67239270
C        5.74423400        0.42121087        7.56273050
C        6.69089810        1.35511590        8.45081500
C        7.55959420        9.34363210        7.52405700
C        8.35968280       10.26369500        8.47942230
C        7.49914540        0.41023125        5.72217450
C        8.38937040        1.37472980        6.68146670
C        5.79834600        2.18229480        9.37378560
C        6.71332170        3.10754280       10.20172100
C        5.83261760        4.02803100        0.40153505
C        6.67444600        4.86952590        1.37572250
C        7.51031780        2.25753830        0.47473181
C        8.39164320        3.16521120        1.37027680
C        7.57457610        4.08450090        9.34211540
C        8.45400720        4.89434630       10.22175800
C        5.79947290        2.22510940        2.20995540
C        6.59457810        3.10152910        3.08909370
C        7.54507330        2.26492740        3.99952530
C        8.46257900        3.17663680        4.90473260
C        7.59158920        3.95121220        2.30221220
C        8.42586450        4.90193020        3.16223650
C        5.79682310        2.21729950        5.76525390
C        6.69487480        3.10865370        6.67494720
C        5.76965920        3.99663550        7.50881410
C        6.70161790        4.92568100        8.43231800
C        7.61353460        2.26707420        7.56481990
C        8.47149430        3.14396780        8.46210650
C        7.61274640        3.90940780        5.86815630
C        8.42571630        4.84373060        6.58228390
C        5.69334490        5.83774320        9.31119860
C        6.61966300        6.56981400       10.22158700
C        5.78560300        7.53578030        0.47415211
C        6.61116690        8.41732310        1.28205780
C        7.53615750        5.77850800        0.44157037
C        8.43743580        6.69684620        1.35125180
C        7.54832650        7.48269010        9.35629290
C        8.41698600        8.41959070       10.19837200
C        5.88612680        5.75322740        2.24211850
C        6.66426550        6.67436280        3.10642970
C        5.69879580        7.51928350        3.96489230
C        6.62289690        8.47945900        4.80491290
C        7.57808070        5.83562290        3.95730980
C        8.43880510        6.64523480        4.81060980
C        7.50198450        7.54837650        2.17306620
C        8.42380120        8.52565290        3.08276420
C        5.75571060        5.75670890        5.74401500
C        6.60878700        6.67073700        6.59160410
C        5.78991030        7.63981160        7.54841570
C        6.61445800        8.45719290        8.43487900
C        7.55369630        5.80273000        7.51156190
C        8.41757540        6.69081530        8.47074010
C        7.56496730        7.58146310        5.72226200
C        8.41226470        8.49727710        6.66609840
N        5.64623730        3.93432730        3.89189880
