&CONTROL
calculation = 'scf'
restart_mode = 'from_scratch'
verbosity = 'high'
wf_collect = .true.
pseudo_dir='/home/arpank/pseudopotentials/'
tprnfor = .true.
/
&SYSTEM
ibrav = 0
ecutwfc = 60
tot_charge = -1
nspin = 2
tot_magnetization = 2.0
nbnd = 480
nat = 215
ntyp = 2
input_dft = 'PBE0'
exx_fraction = 0.18
ecutfock = 120
/
&ELECTRONS
conv_thr = 1D-8
diago_full_acc=.true.
mixing_beta = 0.3
/
&IONS
ion_dynamics='bfgs'
ion_positions='default'
/
K_POINTS gamma
ATOMIC_SPECIES
C  12.01099968  C_ONCV_PBE-1.0.upf
N  14.00699997  N_ONCV_PBE-1.0.upf
CELL_PARAMETERS angstrom
    10.65000000      0.00000000      0.00000000
     0.00000000     10.65000000      0.00000000
     0.00000000      0.00000000     10.65000000
ATOMIC_POSITIONS angstrom
C        9.36941230        9.27067270        9.34159390
C       10.19229100       10.21100200       10.17550000
C        9.34294740        0.41795579        0.44088118
C       10.19248600        1.36158490        1.28877220
C        0.42560458        9.33368770        0.41646299
C        1.32398760       10.15556500        1.25679860
C        0.48020433        0.41597230        9.30015550
C        1.33306990        1.32264170       10.11907800
C        9.30275480        9.27536150        2.25263340
C       10.20582100       10.23845500        3.06925430
C        9.27084040        0.43595122        3.99721920
C       10.20084800        1.34278250        4.84845990
C        0.41587050        9.29215930        4.06806190
C        1.31118970       10.17900800        4.91393630
C        0.42855085        0.45098143        2.16262540
C        1.40151050        1.37907400        3.15273270
C        9.30648800        9.33987070        5.72901480
C       10.18283200       10.22180400        6.65588670
C        9.30453300        0.44706929        7.44409220
C       10.23930400        1.26336450        8.44358260
C        0.40661377        9.34325310        7.54696790
C        1.32227290       10.15570400        8.47390500
C        0.53058038        0.39165665        5.79628350
C        1.34098830        1.37968740        6.66933680
C        9.32306190        2.10024830        9.27025050
C       10.20504000        3.14077980       10.14140200
C        9.30421680        3.98894620        0.45616177
C       10.18777700        4.83990540        1.31650360
C        0.43927961        2.20663330        0.42771816
C        1.35668770        3.08961060        1.38983800
C        0.44475060        3.99115390        9.28814300
C        1.31236920        4.92591690       10.15526600
C        9.29884500        2.31445620        2.18676150
C       10.20767700        3.13262860        3.08646650
C        9.27282710        3.99581970        3.98809150
C       10.18399000        4.90755640        4.94210810
C        0.46094237        2.20956220        4.02512070
C        1.29040610        3.11154820        4.89762980
C        0.42150157        4.04408830        2.20405020
C        1.37494290        4.85009160        3.15158570
C        9.36162090        2.22788320        5.73903210
C       10.19711100        3.08382230        6.58293480
C        9.28799530        3.96856140        7.49647790
C       10.22657600        4.79428820        8.47257090
C        0.51271661        2.22635520        7.50961420
C        1.30918630        3.11026590        8.43971170
C        0.40212472        4.08931530        5.81322470
C        1.32616780        4.96055750        6.68032860
C        9.29766900        5.80561950        9.32096200
C       10.17655400        6.61063390       10.20418100
C        9.32192040        7.53552360        0.39532883
C       10.13927400        8.40990880        1.33922640
C        0.45202753        5.68115020        0.39110321
C        1.27472630        6.73865950        1.27042430
C        0.42669101        7.60677960        9.39725200
C        1.33494330        8.47311810       10.24184400
C        9.28603690        5.72858500        2.21125350
C       10.20559300        6.65134790        3.12014610
C        9.31516420        7.55315530        3.99318520
C       10.17844200        8.48914670        4.87453380
C        0.47265698        5.78421290        4.02347140
C        1.40208880        6.64393510        4.86476030
C        0.41975609        7.53246610        2.18552980
C        1.25136470        8.46167540        3.10368360
C        9.27942120        5.76337790        5.78912620
C       10.13255200        6.67024330        6.72307540
C        9.29348330        7.55543190        7.51242860
C       10.13695800        8.43600130        8.37815470
C        0.45403406        5.76237740        7.59313620
C        1.27981140        6.63602590        8.45822170
C        0.41852508        7.57928240        5.72954190
C        1.28119370        8.51660670        6.60685360
C        2.22305110        9.27329120        9.30700300
C        3.10477890       10.13794200       10.25390500
C        2.22105020        0.44934515        0.41902563
C        3.05740280        1.35665590        1.36390450
C        4.00637590        9.34396810        0.50442939
C        4.81010330       10.16729900        1.25643940
C        3.95839150        0.41949504        9.35054830
C        4.81643830        1.37159660       10.24208300
C        2.22236110        9.30204400        2.19643910
C        3.18694260       10.17226900        3.08866950
C        2.29308020        0.37883785        4.00030220
C        3.21936720        1.40197980        4.90775870
C        4.00907030        9.33033330        4.01167440
C        4.89641440       10.22465200        4.88291530
C        3.96408130        0.44338378        2.22910310
C        4.85433580        1.35313960        3.13633710
C        2.21736280        9.34706920        5.77680570
C        3.07195810       10.21125400        6.75986990
C        2.15879160        0.43891363        7.54650770
C        3.08115930        1.32917620        8.47286980
C        3.94724430        9.32140910        7.60816510
C        4.87796690       10.23804600        8.51942590
C        4.04410790        0.43833688        5.78028260
C        4.92878170        1.34129070        6.66942920
C        2.20361620        2.19800970        9.33116160
C        3.07415340        3.08819820       10.19460700
C        2.22002660        4.03634230        0.39307472
C        3.09781370        4.90385090        1.28721210
C        3.92103120        2.24829990        0.48073821
C        4.94240160        3.06101080        1.35205660
C        4.02423570        3.97404100        9.35788130
C        4.87347180        4.81034100       10.28180300
C        2.20273750        2.24808380        2.26590300
C        3.07642360        3.11038350        3.06267990
C        2.26139500        4.00663070        3.94649630
C        3.10539920        4.91332750        4.85843390
C        3.93072170        2.23145110        3.95473480
C        4.79102210        3.16795950        4.88908940
C        4.03638050        3.93143860        2.21521330
C        4.96022820        4.91887050        3.13284670
C        2.18591260        2.21050510        5.82741160
C        3.15119870        3.13407260        6.70508930
C        2.14124730        4.04633640        7.56611970
C        3.10432630        4.82253780        8.41404470
C        3.91736740        2.25240710        7.60901650
C        4.87779490        3.10323750        8.42356460
C        4.03734030        4.06185730        5.76273530
C        4.86443720        4.93225180        6.67835580
C        2.24209580        5.73888350        9.37458640
C        3.09261450        6.57953760       10.18498100
C        2.22808790        7.57986340        0.42198858
C        3.09513010        8.33350170        1.28523560
C        4.04406280        5.73128940        0.44277344
C        4.87244470        6.67619990        1.34561350
C        3.97269450        7.45321460        9.30563670
C        4.87040220        8.38948210       10.22883400
C        2.23654800        5.81354160        2.14182830
C        3.20001590        6.56200350        3.09353510
C        2.18410680        7.50592390        3.98347100
C        3.11490200        8.41842440        4.91654460
C        4.02374190        5.80875820        4.03719730
C        4.91807760        6.70120700        4.97070450
C        4.04794840        7.58293720        2.21740780
C        4.87325190        8.46284840        3.09018430
C        2.22704530        5.77765950        5.83180740
C        3.10665550        6.63122730        6.68752030
C        2.22108430        7.61253880        7.56939990
C        3.10185110        8.39794890        8.41983300
C        3.98171770        5.76142250        7.57331720
C        4.82475310        6.57335120        8.43160800
C        3.99326930        7.58916630        5.76718260
C        4.86983370        8.41539550        6.73298960
C        5.87296180        9.25062220        9.32921980
C        6.63061600       10.18311900       10.21082000
C        5.78283930        0.45880330        0.46966631
C        6.64649760        1.27029330        1.30957720
C        7.55449250        9.33703150        0.37338146
C        8.50205960       10.13836600        1.29253380
C        7.61826990        0.44230974        9.29286420
C        8.45541320        1.30272250       10.20703200
C        5.76744360        9.34084480        2.17817760
C        6.66823120       10.28716000        3.19439930
C        5.71720230        0.50913269        4.00428780
C        6.62334400        1.34032320        4.90527910
C        7.45203440        9.36532350        4.01601970
C        8.41920030       10.24451000        4.85855090
C        7.54108860        0.41768464        2.12251750
C        8.38996150        1.38660160        3.07391150
C        5.79373020        9.32443960        5.78823370
C        6.64842590       10.21760500        6.68267470
C        5.77375190        0.49975341        7.65906410
C        6.74344770        1.36078840        8.42258580
C        7.62973600        9.29417370        7.48771230
C        8.49936520       10.23323800        8.40069630
C        7.61326180        0.50711984        5.82411030
C        8.36733430        1.42372700        6.62266850
C        5.75780900        2.21708360        9.26462210
C        6.62236340        3.05542060       10.24715700
C        5.82645960        3.99484190        0.46942399
C        6.67641860        4.91840530        1.32030240
C        7.50470360        2.19666270        0.39784319
C        8.42142870        3.03192490        1.24180200
C        7.51855520        3.92829100        9.39345150
C        8.41336410        4.90160420       10.19539100
C        5.79414600        2.15762560        2.22643190
C        6.60018190        3.05568610        3.07326670
C        7.51980190        2.22182650        3.95886910
C        8.45207000        3.11777070        4.89035940
C        7.48182980        4.01932500        2.16297760
C        8.45972670        4.88756900        3.06321040
C        5.78576690        2.21464430        5.78375880
C        6.66732860        3.06925590        6.63069200
C        5.84245680        4.01071010        7.46852520
C        6.59585210        4.89857220        8.39485500
C        7.52244870        2.19649370        7.54854960
C        8.45478090        3.04581960        8.45628030
C        7.62331960        3.87737300        5.81884160
C        8.42079140        4.85531560        6.67068460
C        5.73098800        5.67319640        9.32022460
C        6.74198600        6.60331520       10.18343700
C        5.80612200        7.56430770        0.44001507
C        6.67656280        8.38513750        1.33926320
C        7.60467370        5.81690080        0.39828719
C        8.44560860        6.70088620        1.32042130
C        7.52349220        7.52691450        9.30866110
C        8.45659320        8.39624470       10.24493100
C        5.79698400        5.70707080        2.27226530
C        6.63126390        6.64764720        3.17124240
C        5.84053150        7.58389680        3.95366640
C        6.65124340        8.47481390        4.85592790
C        7.62377400        5.81647810        3.99579360
C        8.44641960        6.65635480        4.82313560
C        7.56792620        7.55782520        2.22462740
C        8.41857070        8.44788790        3.14040360
C        5.74888450        5.89313510        5.81418260
C        6.74772280        6.66700770        6.65738840
C        5.77123550        7.57265610        7.58002590
C        6.66038750        8.43941990        8.42552760
C        7.58652120        5.82788630        7.50125620
C        8.46057620        6.67122990        8.44630380
C        7.57903520        7.60282470        5.74026710
C        8.40230860        8.43915280        6.62409000
N        5.66976310        3.79612730        3.86087050
