&CONTROL
calculation = 'scf'
restart_mode = 'from_scratch'
verbosity = 'high'
wf_collect = .true.
pseudo_dir='/home/arpank/pseudopotentials/'
tprnfor = .true.
/
&SYSTEM
ibrav = 0
ecutwfc = 60
tot_charge = -1
nspin = 2
tot_magnetization = 2.0
nbnd = 480
nat = 215
ntyp = 2
input_dft = 'PBE0'
exx_fraction = 0.18
ecutfock = 120
/
&ELECTRONS
conv_thr = 1D-8
diago_full_acc=.true.
mixing_beta = 0.3
/
&IONS
ion_dynamics='bfgs'
ion_positions='default'
/
K_POINTS gamma
ATOMIC_SPECIES
C  12.01099968  C_ONCV_PBE-1.0.upf
N  14.00699997  N_ONCV_PBE-1.0.upf
CELL_PARAMETERS angstrom
    10.65000000      0.00000000      0.00000000
     0.00000000     10.65000000      0.00000000
     0.00000000      0.00000000     10.65000000
ATOMIC_POSITIONS angstrom
C        9.35643010        9.35378670        9.29068230
C       10.25571600       10.20745400       10.21115800
C        9.38310940        0.38750746        0.45010968
C       10.24679900        1.33031530        1.23270910
C        0.44748485        9.33215690        0.44230842
C        1.34674870       10.23423800        1.27729000
C        0.42398086        0.41018152        9.34392910
C        1.31134540        1.30589830       10.13629500
C        9.36466850        9.32312990        2.15385270
C       10.21249300       10.24144600        3.03938910
C        9.30472590        0.45428528        4.01949560
C       10.18320000        1.41249840        4.91445190
C        0.42929276        9.35238770        3.87333240
C        1.33765390       10.20600900        4.92330590
C        0.42077680        0.47204610        2.20484820
C        1.35901170        1.30852750        3.07142720
C        9.26071360        9.40958090        5.70387230
C       10.11971800       10.20583100        6.63681530
C        9.32513660        0.39785889        7.55897440
C       10.12997200        1.28352950        8.49551840
C        0.44488100        9.34908020        7.58643790
C        1.33905310       10.23160800        8.43928610
C        0.43915070        0.44769047        5.81103590
C        1.35669830        1.27067040        6.59727320
C        9.30628270        2.17994270        9.36592730
C       10.17697900        3.08392710       10.15689300
C        9.30692220        3.99916760        0.41071232
C       10.21201600        4.84380850        1.35806570
C        0.46375652        2.23946460        0.34833456
C        1.30994270        3.10516720        1.29757930
C        0.43656479        3.96462700        9.23489840
C        1.26054550        4.86844810       10.15542100
C        9.31327920        2.18575410        2.21876500
C       10.19821200        3.09278800        3.10872850
C        9.26182220        4.00357350        4.03066420
C       10.15031400        4.92014130        4.90490710
C        0.43979515        2.14412580        4.02469640
C        1.37838270        3.07470910        4.83743300
C        0.43135095        4.00018700        2.24016340
C        1.36987970        4.87277860        3.16591730
C        9.34849570        2.28980920        5.81935920
C       10.16080300        3.15460660        6.70489820
C        9.27906880        3.96604960        7.57071830
C       10.21151600        4.85836920        8.46722240
C        0.47178191        2.10331120        7.52929510
C        1.32491440        3.16642680        8.35107850
C        0.33645121        3.93321700        5.78246040
C        1.35210610        4.87239320        6.65877860
C        9.28373430        5.79445060        9.41214090
C       10.17864300        6.68672480       10.21551500
C        9.34262540        7.51814610        0.46472525
C       10.24430600        8.42278120        1.32691150
C        0.43428778        5.70639520        0.45044862
C        1.35454310        6.65710370        1.27843930
C        0.44037090        7.53950340        9.33562400
C        1.29091470        8.44290670       10.19595800
C        9.37072060        5.76011740        2.23429500
C       10.25414700        6.69746920        3.10966160
C        9.38095250        7.56036040        4.02497430
C       10.21190500        8.48127700        4.78102290
C        0.42867032        5.81437680        4.00464070
C        1.30540620        6.70700710        4.91838980
C        0.44955314        7.54376410        2.22726590
C        1.44303160        8.49312000        3.07298100
C        9.36032380        5.79304800        5.76873480
C       10.18115200        6.61733730        6.65285900
C        9.29837370        7.49599690        7.51389080
C       10.19987200        8.45807750        8.44972590
C        0.42113817        5.71345230        7.63512530
C        1.34511650        6.68625510        8.45675190
C        0.44604669        7.55279290        5.82192600
C        1.40543490        8.44653620        6.63812800
C        2.25235880        9.37288160        9.25899550
C        3.09457610       10.23585100       10.15745300
C        2.12839930        0.51985895        0.40840079
C        3.07074090        1.35014520        1.35460720
C        4.01891130        9.25654160        0.40584307
C        4.87531790       10.20852800        1.34689000
C        3.97193940        0.40372551        9.31814500
C        4.95451970        1.27533330       10.28408200
C        2.22068140        9.30752820        2.20912190
C        3.07686190       10.18757200        3.11845170
C        2.20674290        0.43745473        4.10339830
C        3.06499740        1.37140460        4.86061850
C        3.95925450        9.30486640        4.05930040
C        4.88846000       10.20765400        5.02629790
C        3.89796360        0.42715852        2.22752710
C        4.86106120        1.31642740        3.11619210
C        2.20039200        9.31046290        5.73912490
C        3.06983250       10.20602800        6.57572790
C        2.20538290        0.41560033        7.51667010
C        3.14486370        1.27851410        8.40932640
C        4.02051950        9.32175140        7.56868430
C        4.88585020       10.19467000        8.42489870
C        4.04334490        0.41718466        5.71567170
C        4.89801760        1.30373160        6.69002860
C        2.14638570        2.24730570        9.29210280
C        3.13331790        3.08807720       10.21002500
C        2.21033280        4.01143630        0.40135534
C        3.11716810        4.91621110        1.31829770
C        3.91232590        2.24702060        0.39826201
C        4.87757680        3.03376120        1.31861350
C        4.01818310        3.99564730        9.35630060
C        4.82443560        4.86947450       10.25256600
C        2.20872110        2.19355660        2.20427230
C        3.07935380        3.17886610        3.12912690
C        2.18950120        3.98472610        4.00318000
C        3.09508750        4.93831920        4.91323250
C        3.97013650        2.18387730        4.05843860
C        4.81710150        3.07990910        4.82752560
C        3.91634200        4.06485130        2.17754930
C        4.88143660        4.88768270        3.03279170
C        2.25251250        2.21427580        5.76866240
C        3.13576650        3.12596980        6.68061970
C        2.18477180        4.03313830        7.47024040
C        3.11097650        4.89520830        8.48714320
C        3.99691220        2.22455580        7.61259370
C        4.92983750        3.00439590        8.46184170
C        3.99349760        3.98149730        5.76764140
C        4.87453480        4.80232550        6.64581420
C        2.22057540        5.80299270        9.31639090
C        3.12492900        6.73668170       10.17809300
C        2.10728810        7.57456420        0.35443916
C        3.08518050        8.42910750        1.27013150
C        4.07550810        5.85191360        0.41225643
C        4.89471940        6.65374070        1.45508460
C        4.03604350        7.57948720        9.31364110
C        4.86315790        8.44984090       10.24500900
C        2.20813110        5.76714900        2.27451020
C        3.20789690        6.68619010        3.15218720
C        2.25432010        7.58376770        3.97765520
C        3.11742640        8.49083380        4.89888710
C        3.98238990        5.79248660        4.00399720
C        4.96055330        6.62573270        4.91573450
C        3.98322520        7.50101400        2.23404550
C        4.91253760        8.49284630        3.14556360
C        2.25072620        5.78109890        5.81240900
C        3.16552640        6.66842650        6.64661500
C        2.26145860        7.63731180        7.55129820
C        3.13656220        8.46899390        8.38622350
C        3.99535450        5.76504180        7.61298730
C        4.87902100        6.64712540        8.35700860
C        3.97557930        7.59421330        5.76238460
C        4.91573580        8.37464430        6.62137570
C        5.83847830        9.33797030        9.31808060
C        6.63140660       10.18999100       10.18667900
C        5.73772420        0.51273154        0.50633542
C        6.67481290        1.25679040        1.40498630
C        7.51163510        9.25796760        0.45790709
C        8.41000610       10.19516800        1.32296870
C        7.54439570        0.38824317        9.28598140
C        8.44956580        1.24961200       10.21307800
C        5.74642170        9.34984470        2.15473450
C        6.68298430       10.22734800        3.11567210
C        5.77470560        0.50613207        4.04242610
C        6.63834060        1.33708130        4.88560650
C        7.56501720        9.32384700        3.97422030
C        8.37695840       10.22137000        4.87994380
C        7.54948580        0.34100232        2.17779580
C        8.45907430        1.28502980        3.03621150
C        5.72892850        9.30622100        5.78344560
C        6.62126100       10.25358600        6.66373380
C        5.84053600        0.46483390        7.54950070
C        6.59009400        1.32118910        8.42742850
C        7.54352570        9.32674960        7.50226310
C        8.45854540       10.15039900        8.47781510
C        7.53046410        0.50867932        5.78291380
C        8.41930350        1.30121050        6.67624550
C        5.81195190        2.15329660        9.38288750
C        6.61688710        3.09990460       10.20291600
C        5.69979690        3.96144620        0.45874101
C        6.60353910        4.91033130        1.35134330
C        7.57299760        2.14885340        0.48336954
C        8.46404030        3.10808580        1.33645470
C        7.60856140        4.00052820        9.39057560
C        8.45940350        4.83661890       10.26511700
C        5.80177050        2.22987260        2.20896730
C        6.62462700        3.12768060        3.14231140
C        7.54306510        2.17605680        4.03773600
C        8.41829550        3.10404990        4.82246680
C        7.48005260        4.04811550        2.26355530
C        8.47436070        4.96201470        3.12684090
C        5.75927320        2.32535360        5.74905990
C        6.63932510        3.14359460        6.62938310
C        5.80746190        3.99072110        7.59203110
C        6.67350780        4.87479290        8.36531520
C        7.45894150        2.22824770        7.54895760
C        8.34212650        3.14829920        8.49590390
C        7.60681140        3.95290540        5.83000230
C        8.44915840        4.90260530        6.65082040
C        5.78507440        5.75496630        9.31637730
C        6.67250370        6.67238170       10.16396000
C        5.80087760        7.52984290        0.48826140
C        6.64224350        8.44254590        1.27352020
C        7.55914630        5.77340120        0.42163451
C        8.44819880        6.66693460        1.32120270
C        7.54974610        7.56335960        9.29944220
C        8.46678470        8.35120200       10.19876000
C        5.74827680        5.78520560        2.20932670
C        6.72285230        6.65719340        3.05605260
C        5.82508410        7.48671640        4.01031430
C        6.67885890        8.39944620        4.85692890
C        7.65388500        5.85724820        3.95192720
C        8.52162270        6.66593620        4.84863180
C        7.63770320        7.52791720        2.19153500
C        8.46245290        8.40211810        3.09779870
C        5.71473380        5.81253140        5.86798690
C        6.68006480        6.60896150        6.59257270
C        5.69638490        7.43745490        7.52859200
C        6.64096410        8.34861560        8.41811530
C        7.53476660        5.74921800        7.54005330
C        8.38102330        6.69890230        8.42086820
C        7.53307370        7.51461590        5.75965240
C        8.40836480        8.39700840        6.68284090
N        5.66846340        3.93534320        3.91155050
