&CONTROL
calculation = 'scf'
restart_mode = 'from_scratch'
verbosity = 'high'
wf_collect = .true.
pseudo_dir='/home/arpank/pseudopotentials/'
tprnfor = .true.
/
&SYSTEM
ibrav = 0
ecutwfc = 60
tot_charge = -1
nspin = 2
tot_magnetization = 2.0
nbnd = 480
nat = 215
ntyp = 2
input_dft = 'PBE0'
exx_fraction = 0.18
ecutfock = 120
/
&ELECTRONS
conv_thr = 1D-8
diago_full_acc=.true.
mixing_beta = 0.3
/
&IONS
ion_dynamics='bfgs'
ion_positions='default'
/
K_POINTS gamma
ATOMIC_SPECIES
C  12.01099968  C_ONCV_PBE-1.0.upf
N  14.00699997  N_ONCV_PBE-1.0.upf
CELL_PARAMETERS angstrom
    10.65000000      0.00000000      0.00000000
     0.00000000     10.65000000      0.00000000
     0.00000000      0.00000000     10.65000000
ATOMIC_POSITIONS angstrom
C        9.42127430        9.36370810        9.38719240
C       10.18596600       10.25225800       10.24429300
C        9.26705670        0.56029904        0.50130127
C       10.12318500        1.32686280        1.29373670
C        0.48540280        9.30894150        0.44947959
C        1.34451260       10.23119300        1.32873970
C        0.44095688        0.44938992        9.32944310
C        1.28001830        1.31229310       10.09520000
C        9.34879270        9.30625310        2.21419110
C       10.14431300       10.27912100        3.10320440
C        9.25344500        0.45670332        3.98837580
C       10.25930000        1.34772420        4.88842150
C        0.45473476        9.34188040        3.99322660
C        1.37894590       10.18006100        4.92961900
C        0.41831819        0.48295423        2.15521360
C        1.35784840        1.30937620        3.07706220
C        9.35075000        9.34190360        5.76990540
C       10.21987400       10.14884300        6.62032060
C        9.31161540        0.47440888        7.52557870
C       10.18314200        1.31424450        8.37659080
C        0.44483888        9.35483350        7.52089350
C        1.26080330       10.21214700        8.40688320
C        0.38119633        0.46041664        5.83829680
C        1.29298530        1.33201910        6.68674620
C        9.33025000        2.21097130        9.24215520
C       10.18800200        3.12838210       10.22540300
C        9.30209940        4.06804530        0.49375366
C       10.15610000        4.90572590        1.28186080
C        0.42664725        2.22416150        0.40523449
C        1.32283550        3.12725620        1.34183350
C        0.50743412        4.04773010        9.31801900
C        1.31548190        4.89781800       10.14754700
C        9.29005560        2.25160140        2.16425690
C       10.18450800        3.09700260        3.06659510
C        9.33327340        3.98225010        3.94680130
C       10.18958000        4.87292730        4.84600760
C        0.45805775        2.13824870        3.93922470
C        1.26790600        3.01893660        4.83150510
C        0.42000586        3.97140240        2.17425270
C        1.43187470        4.88752130        3.10821960
C        9.28825290        2.21652220        5.70697700
C       10.24397500        3.18946960        6.61383210
C        9.38326700        4.00801770        7.57006520
C       10.22537000        4.81900950        8.40402990
C        0.49459823        2.34278940        7.48901040
C        1.36395560        3.13423880        8.39829550
C        0.47189257        3.98651720        5.66980260
C        1.33267180        4.95876220        6.65886400
C        9.27732490        5.80290960        9.23903120
C       10.22059200        6.67377700       10.21903000
C        9.32817530        7.49882830        0.41541497
C       10.21750400        8.42020220        1.34845800
C        0.50851501        5.78208750        0.46360743
C        1.30660000        6.62836810        1.36774400
C        0.41725032        7.48323200        9.37754030
C        1.29685900        8.42900090       10.18000500
C        9.38843380        5.80788270        2.24807760
C       10.22195700        6.65619080        3.15109290
C        9.35177700        7.56336210        3.97290630
C       10.18795700        8.47630880        4.81998040
C        0.51226455        5.77083520        3.98222770
C        1.33181550        6.67298600        4.90056500
C        0.52249790        7.54688520        2.25491910
C        1.32594610        8.49360060        3.14244930
C        9.32764870        5.77466350        5.75369240
C       10.19060800        6.72805040        6.66061180
C        9.28287710        7.51451880        7.58407860
C       10.22894300        8.43661540        8.44341510
C        0.42203328        5.81803760        7.57645100
C        1.33697640        6.60861650        8.44745410
C        0.39576829        7.57098650        5.68463440
C        1.37365790        8.50987280        6.64543410
C        2.24662610        9.37485860        9.36304490
C        3.12389430       10.22076000       10.24270900
C        2.13209990        0.49533487        0.29181472
C        3.08184290        1.29558410        1.31845260
C        3.96610750        9.32017100        0.49671820
C        4.92268740       10.19142500        1.42936180
C        4.02375990        0.41365410        9.29205120
C        4.90066050        1.32500620       10.16426300
C        2.24966970        9.36562640        2.25307210
C        3.15863680       10.15775500        3.16741490
C        2.12524100        0.40876360        4.00443470
C        3.06645160        1.33266830        4.77988760
C        3.96447810        9.34453050        4.05115430
C        4.79616770       10.22736800        4.89179150
C        3.96991530        0.42282401        2.18236490
C        4.89840230        1.29241830        3.14209520
C        2.18642910        9.26959610        5.78646380
C        3.16791970       10.14315000        6.70052760
C        2.21936090        0.44147281        7.55833020
C        3.10146310        1.31605630        8.48530780
C        4.01013390        9.38315730        7.56733630
C        4.97217300       10.18125900        8.37897240
C        3.95829970        0.47472001        5.83534130
C        4.85837690        1.37239760        6.74459390
C        2.20647870        2.21791570        9.32644800
C        3.09998730        3.18005080       10.22807500
C        2.24097370        4.00064430        0.39849508
C        3.10444390        4.88691650        1.32287510
C        3.94379220        2.18645280        0.42604855
C        4.84589290        3.07160530        1.29027290
C        3.95037070        3.99417590        9.29585700
C        4.83055500        4.84441960       10.14472100
C        2.22693530        2.20959890        2.15588770
C        3.08795350        3.04633570        3.08921000
C        2.25159330        3.94657440        3.98882530
C        3.13897020        4.92184230        4.87759490
C        3.98765930        2.13042590        3.93866270
C        4.85518860        3.02086220        4.79670210
C        3.97013620        4.00501000        2.21380700
C        4.99938770        4.81499440        3.12999920
C        2.22290600        2.14976410        5.74137750
C        3.05091290        3.05513720        6.68584820
C        2.23672920        4.03601200        7.49790140
C        3.02585540        4.92262920        8.40613430
C        3.98304700        2.21288250        7.60261380
C        4.87913740        3.10032760        8.48992990
C        4.00542800        3.97215690        5.72130840
C        4.88492940        4.87083520        6.62899350
C        2.17896900        5.87893260        9.34961880
C        3.05436280        6.67145850       10.25558900
C        2.28898110        7.52701860        0.51573054
C        3.11244430        8.39858360        1.37681930
C        4.01270980        5.78706170        0.43911851
C        4.94257400        6.60291140        1.35851990
C        3.92160350        7.55757790        9.32816990
C        4.78385410        8.49101060       10.20517200
C        2.26037740        5.76463070        2.23522200
C        3.13721590        6.61017830        3.14065530
C        2.19567280        7.55152260        4.01235430
C        3.11808760        8.38807030        4.85281740
C        4.05494900        5.79576730        4.04764500
C        4.93566890        6.63707690        4.89909300
C        3.93860450        7.50148650        2.23989650
C        4.85935120        8.41920800        3.09667860
C        2.26365120        5.76077040        5.76476100
C        3.10523770        6.67178020        6.65209520
C        2.21255420        7.54824210        7.53153890
C        3.18631950        8.51160420        8.35423830
C        3.94622990        5.77610310        7.49566020
C        4.88450840        6.68898500        8.41129160
C        4.00790440        7.55628240        5.77155840
C        4.94259430        8.49815790        6.70175780
C        5.76482090        9.28923240        9.30101520
C        6.67656860       10.18962400       10.19103100
C        5.76900180        0.50438061        0.45562017
C        6.71885720        1.35757900        1.33136230
C        7.52209040        9.31272270        0.50731845
C        8.40573720       10.20296600        1.31964010
C        7.57252180        0.38166124        9.30993890
C        8.44505580        1.36664050       10.25743300
C        5.76936620        9.28470690        2.25165910
C        6.59029010       10.17164800        3.10474690
C        5.72023950        0.38853626        3.93184130
C        6.65996480        1.30766540        4.85817300
C        7.56080140        9.28388950        4.02419160
C        8.44015200       10.16273600        4.86014660
C        7.50817630        0.45634732        2.28241910
C        8.41114360        1.35532850        3.11638820
C        5.79143600        9.28895130        5.85566810
C        6.67970130       10.21882200        6.65052180
C        5.84029360        0.44476296        7.51515970
C        6.61525660        1.32831250        8.35499960
C        7.61004320        9.25757980        7.56356460
C        8.52018120       10.20841000        8.41039910
C        7.53861450        0.38997741        5.78451420
C        8.45133200        1.33010880        6.63756710
C        5.77125920        2.26626340        9.27382380
C        6.61629090        3.07456100       10.21119800
C        5.76902890        3.95027950        0.43446113
C        6.60378050        4.87422940        1.33036380
C        7.58495430        2.20249950        0.49589538
C        8.36640350        3.15203740        1.36923650
C        7.53379450        3.96535030        9.33425830
C        8.47625130        4.87431440       10.21744600
C        5.75920540        2.21530400        2.23390410
C        6.66656290        3.11913650        3.07402110
C        7.49008790        2.22853210        4.03415680
C        8.45180510        3.09451660        4.82231400
C        7.54279780        4.05740580        2.22189740
C        8.38818120        4.89136710        3.18529620
C        5.68544060        2.26439280        5.76888490
C        6.64259780        3.14286760        6.61476040
C        5.70575010        4.02596790        7.60615940
C        6.66983910        4.87720330        8.41866130
C        7.47732540        2.30150590        7.52400880
C        8.45993600        3.07379040        8.45004140
C        7.62878050        3.84588140        5.81161520
C        8.47520420        4.84947370        6.64494970
C        5.74971700        5.72899660        9.20499370
C        6.61468430        6.56707030       10.22201200
C        5.73189610        7.55177460        0.45730869
C        6.65416590        8.42063770        1.38964500
C        7.54913170        5.64925180        0.48559608
C        8.46822620        6.67537830        1.39227810
C        7.57356170        7.55731250        9.35700760
C        8.41246960        8.39413390       10.20375100
C        5.70486920        5.71764500        2.25699130
C        6.61637070        6.63134170        3.10830580
C        5.75214060        7.59822160        4.07292390
C        6.63879640        8.43273470        4.93412410
C        7.68676900        5.82254070        3.88906330
C        8.48872910        6.67228400        4.88905430
C        7.55026680        7.58049860        2.26274900
C        8.45808720        8.45142840        3.15376850
C        5.74724010        5.77936930        5.83224430
C        6.67217870        6.58840090        6.62745820
C        5.69696830        7.58744330        7.60777470
C        6.67194000        8.41296440        8.46824680
C        7.58749140        5.76333680        7.52312650
C        8.47987250        6.66319200        8.44563120
C        7.56515930        7.52689050        5.80470580
C        8.48251280        8.37220560        6.63610590
N        5.66037860        3.88367600        3.92921920
