&CONTROL
calculation = 'scf'
restart_mode = 'from_scratch'
verbosity = 'high'
wf_collect = .true.
pseudo_dir='/home/arpank/pseudopotentials/'
tprnfor = .true.
/
&SYSTEM
ibrav = 0
ecutwfc = 60
tot_charge = -1
nspin = 2
tot_magnetization = 2.0
nbnd = 480
nat = 215
ntyp = 2
input_dft = 'PBE0'
exx_fraction = 0.18
ecutfock = 120
/
&ELECTRONS
conv_thr = 1D-8
diago_full_acc=.true.
mixing_beta = 0.3
/
&IONS
ion_dynamics='bfgs'
ion_positions='default'
/
K_POINTS gamma
ATOMIC_SPECIES
C  12.01099968  C_ONCV_PBE-1.0.upf
N  14.00699997  N_ONCV_PBE-1.0.upf
CELL_PARAMETERS angstrom
    10.65000000      0.00000000      0.00000000
     0.00000000     10.65000000      0.00000000
     0.00000000      0.00000000     10.65000000
ATOMIC_POSITIONS angstrom
C        9.38754500        9.28310210        9.35743540
C       10.20807800       10.17273300       10.22339400
C        9.34910980        0.41350458        0.39338446
C       10.17982900        1.32591530        1.31274570
C        0.42375147        9.34519440        0.44912382
C        1.30539830       10.20506100        1.36809330
C        0.43703546        0.46210909        9.29966440
C        1.34918260        1.32348900       10.20319200
C        9.32962230        9.30694220        2.19615090
C       10.19175700       10.21377500        3.18423660
C        9.30270950        0.44409008        4.05388900
C       10.29933700        1.28774110        4.88480460
C        0.46824600        9.37651860        4.02629990
C        1.33480350       10.23467000        4.87464760
C        0.39814377        0.47153452        2.16791720
C        1.33451210        1.27625080        3.05977130
C        9.30093060        9.29459870        5.75451870
C       10.18837100       10.22943600        6.66708880
C        9.37611110        0.43564252        7.53051170
C       10.18742800        1.25459810        8.45933330
C        0.48131751        9.32977390        7.51163940
C        1.36820890       10.23723200        8.41071580
C        0.46621471        0.45692516        5.78352980
C        1.39688030        1.38133390        6.65914280
C        9.37964690        2.28541940        9.30979200
C       10.16140000        3.08851950       10.23511800
C        9.23974110        3.98513980        0.47511533
C       10.17105800        4.85982200        1.28989720
C        0.38272403        2.23459560        0.54654450
C        1.28695380        3.12225610        1.33586630
C        0.50909418        4.02114050        9.35213630
C        1.32923380        4.85741620       10.27810800
C        9.24147030        2.27360610        2.24765030
C       10.21180400        3.12739360        3.13951170
C        9.28736810        4.00688770        3.96677640
C       10.16546700        4.86386590        4.86359900
C        0.42367572        2.20923900        4.02720590
C        1.31867270        3.08767260        4.92045380
C        0.42512457        3.94011070        2.29662800
C        1.34981640        4.91111450        3.05819250
C        9.39730430        2.16653410        5.79672640
C       10.19805300        3.03008550        6.67198260
C        9.29824000        3.93273400        7.56086460
C       10.22251700        4.80140410        8.42530270
C        0.44251674        2.13038510        7.57357060
C        1.33980040        3.05055550        8.49701810
C        0.47487977        3.91788370        5.81019340
C        1.29969810        4.86992530        6.66874650
C        9.30282650        5.78319420        9.32927080
C       10.15556800        6.62515200       10.23109200
C        9.26065510        7.54556380        0.50256511
C       10.20563400        8.50112550        1.29251240
C        0.42963428        5.75397880        0.51019697
C        1.27634980        6.69394760        1.32760460
C        0.45525454        7.56229770        9.40483040
C        1.35425150        8.50613580       10.21626600
C        9.34318230        5.77872130        2.30321920
C       10.24066300        6.64490620        3.10794040
C        9.26717260        7.59941030        4.06453280
C       10.28206700        8.52059200        4.91258650
C        0.42891222        5.84054080        4.01643820
C        1.26699430        6.63601990        4.92332390
C        0.43578442        7.57140650        2.18769370
C        1.37393510        8.43134680        3.01820040
C        9.28963250        5.84162210        5.73070930
C       10.20589000        6.62015100        6.58224680
C        9.36094400        7.54153970        7.55681070
C       10.20239600        8.49587250        8.41472080
C        0.41277531        5.76243440        7.51482130
C        1.23588260        6.57798300        8.52133920
C        0.50058094        7.54085760        5.76069730
C        1.30180270        8.34870060        6.66004270
C        2.24265310        9.34026350        9.29789120
C        3.06548280       10.22996000       10.17747500
C        2.21192680        0.43003890        0.48532061
C        3.10637260        1.32885640        1.32324410
C        3.95751560        9.32123380        0.48215703
C        4.83947450       10.25864200        1.31636010
C        3.96023290        0.41722557        9.31937800
C        4.91332060        1.39279800       10.25186400
C        2.24492340        9.30359220        2.28813450
C        3.16533800       10.23903600        3.10776950
C        2.23225610        0.37323131        3.92370060
C        3.06181950        1.42023520        4.81555750
C        4.07767560        9.28722990        4.03602330
C        4.91463070       10.19458500        4.94136240
C        3.94241580        0.48311045        2.19541600
C        4.85034440        1.31502680        3.14542300
C        2.23070550        9.26495620        5.78121850
C        3.11082900       10.26461000        6.65503440
C        2.25516760        0.46111455        7.46987660
C        3.11365730        1.36331540        8.49179220
C        4.05701510        9.36751210        7.56495520
C        4.83411690       10.23747600        8.42873490
C        3.95037170        0.49596204        5.77117740
C        4.89554380        1.30603220        6.59353210
C        2.31639250        2.16877590        9.34496180
C        3.15647450        3.04493410       10.23545100
C        2.26004460        3.98181100        0.48681058
C        3.08570140        4.92276950        1.33371920
C        4.05529790        2.17009170        0.44911997
C        4.87093350        3.10619410        1.34979900
C        4.00090070        3.89888300        9.37181170
C        4.97287480        4.86058890       10.19762800
C        2.19958470        2.26171850        2.14252570
C        3.04530070        3.08690920        3.08332730
C        2.11562590        4.04509270        3.99639610
C        3.10543330        4.86833810        4.88593490
C        3.95633890        2.22928140        3.98058350
C        4.84338410        3.10262140        4.81539590
C        4.04318080        4.06191730        2.23617340
C        4.93784280        4.84603240        3.15275930
C        2.26712630        2.18723880        5.76492210
C        3.18097300        3.09169830        6.58873470
C        2.25351630        3.97857690        7.55995330
C        3.09870190        4.87637130        8.48201930
C        4.02535520        2.16388740        7.50949900
C        4.90326430        3.10417340        8.36718280
C        4.01776680        4.04862790        5.76438090
C        4.89500030        4.85439330        6.64853140
C        2.26295130        5.73179460        9.41348790
C        3.10064310        6.73377230       10.26954800
C        2.27462840        7.57458750        0.50195237
C        3.14770090        8.42926760        1.35408730
C        3.89831730        5.82770730        0.38039980
C        4.90708500        6.66643360        1.27161770
C        3.97660400        7.52832270        9.30932670
C        4.87630920        8.38610640       10.21321800
C        2.17853840        5.85952570        2.20130800
C        3.06039040        6.71889760        3.02336320
C        2.22476770        7.62939520        3.97267100
C        3.09927430        8.50577240        4.84338110
C        4.03302060        5.77496100        3.99987150
C        4.84346890        6.65117010        4.90119260
C        4.02175240        7.55983660        2.16547550
C        4.87470390        8.42581180        3.10223980
C        2.21424910        5.78292710        5.74042770
C        3.06112760        6.65932960        6.62213640
C        2.24682670        7.48622200        7.49807650
C        3.16695760        8.44260720        8.46834900
C        4.05170750        5.69456410        7.54653700
C        4.87547800        6.65441560        8.43230160
C        3.98250780        7.59563370        5.73676640
C        4.93417790        8.40003870        6.67103030
C        5.81271780        9.35095990        9.33219770
C        6.58988850       10.26230600       10.22103800
C        5.75843170        0.48121006        0.40029800
C        6.68888650        1.34555760        1.27706520
C        7.61656750        9.34899050        0.43571507
C        8.43349350       10.16814200        1.35060050
C        7.56557320        0.45340763        9.28295040
C        8.48910820        1.38499470       10.14844700
C        5.78768840        9.32808160        2.24271440
C        6.69235080       10.19735800        3.07354400
C        5.79624770        0.49164257        3.96432970
C        6.56009160        1.35860620        4.87398950
C        7.52773950        9.34822540        3.99309190
C        8.39071640       10.20287700        4.82620250
C        7.55674620        0.43914405        2.21949470
C        8.38563350        1.31092840        3.13405840
C        5.81480950        9.35640010        5.89807510
C        6.64004070       10.15003500        6.72734000
C        5.73572860        0.40250115        7.44373550
C        6.66070140        1.28810020        8.36764020
C        7.63165150        9.29665160        7.50739610
C        8.46516200       10.19264500        8.41878150
C        7.52424140        0.44553677        5.79620900
C        8.48289150        1.30449380        6.64110330
C        5.75815700        2.24838810        9.26048030
C        6.57335350        3.05632600       10.22091900
C        5.76413440        3.94278020        0.49988206
C        6.67001770        4.86853070        1.35817530
C        7.55759650        2.22314860        0.38563987
C        8.38974360        3.14582370        1.31714720
C        7.51168650        3.99407480        9.31059310
C        8.35202990        4.87165490       10.15271500
C        5.76741050        2.21818740        2.22487550
C        6.61219850        3.09014440        3.16387120
C        7.42279370        2.24567520        3.92908470
C        8.40903680        3.03208290        4.87340860
C        7.54029250        3.97758570        2.20443660
C        8.42901060        4.89443570        3.05857510
C        5.73957290        2.19597210        5.75911570
C        6.65896430        3.05496940        6.65629510
C        5.73362570        3.91771310        7.49292210
C        6.61638790        4.83813350        8.38398860
C        7.58059990        2.25358700        7.53925580
C        8.43042210        3.09551870        8.39481760
C        7.59279620        4.00785490        5.73971300
C        8.37891830        4.89360010        6.61046300
C        5.67997290        5.67243770        9.27209050
C        6.60109930        6.68201000       10.24383700
C        5.81623070        7.52771810        0.37628285
C        6.68659330        8.39558840        1.34157200
C        7.52085550        5.79398360        0.37988271
C        8.37913050        6.62108770        1.31476480
C        7.52166740        7.57195010        9.31321560
C        8.42295860        8.39588370       10.21284300
C        5.77455220        5.77108120        2.22929190
C        6.69978930        6.65571600        3.10244930
C        5.73229390        7.61539100        3.95640550
C        6.69625080        8.41041180        4.88190090
C        7.65912100        5.83455940        3.90237940
C        8.46103950        6.64792210        4.86861980
C        7.53942240        7.51864630        2.27776450
C        8.38963160        8.44895580        3.09207190
C        5.66359690        5.84988320        5.83126960
C        6.67629070        6.64755310        6.66905570
C        5.78740560        7.55961780        7.57302560
C        6.63896390        8.41164320        8.42705680
C        7.56245350        5.75012780        7.53722920
C        8.46972540        6.62630930        8.48030010
C        7.57230010        7.54818290        5.79981960
C        8.50720840        8.41674640        6.70439370
N        5.63296810        3.93014460        3.90119780
