&CONTROL
calculation = 'scf'
restart_mode = 'from_scratch'
verbosity = 'high'
wf_collect = .true.
pseudo_dir='/home/arpank/pseudopotentials/'
tprnfor = .true.
/
&SYSTEM
ibrav = 0
ecutwfc = 60
tot_charge = -1
nspin = 2
tot_magnetization = 2.0
nbnd = 480
nat = 215
ntyp = 2
input_dft = 'PBE0'
exx_fraction = 0.18
ecutfock = 120
/
&ELECTRONS
conv_thr = 1D-8
diago_full_acc=.true.
mixing_beta = 0.3
/
&IONS
ion_dynamics='bfgs'
ion_positions='default'
/
K_POINTS gamma
ATOMIC_SPECIES
C  12.01099968  C_ONCV_PBE-1.0.upf
N  14.00699997  N_ONCV_PBE-1.0.upf
CELL_PARAMETERS angstrom
    10.65000000      0.00000000      0.00000000
     0.00000000     10.65000000      0.00000000
     0.00000000      0.00000000     10.65000000
ATOMIC_POSITIONS angstrom
C        9.26294020        9.35750350        9.29068310
C       10.22999600       10.26250600       10.22742300
C        9.27522720        0.37724449        0.44476088
C       10.13515600        1.32424150        1.33868840
C        0.43152359        9.37047340        0.49008614
C        1.34208080       10.23643300        1.35860620
C        0.48537657        0.41191662        9.31009230
C        1.27540610        1.28707600       10.19938800
C        9.30466580        9.24201410        2.17234470
C       10.20949400       10.18905600        3.05377230
C        9.31675850        0.37025214        3.90372200
C       10.23005400        1.30842430        4.88039940
C        0.40252552        9.34233750        3.95921780
C        1.36294470       10.22865600        4.94720020
C        0.40020585        0.45683207        2.23516300
C        1.33031170        1.34554260        3.15089200
C        9.35862500        9.33118370        5.82766030
C       10.14401800       10.25956500        6.69575400
C        9.25960470        0.36465154        7.56425440
C       10.17026600        1.27564300        8.33559010
C        0.46042953        9.36065950        7.60075320
C        1.43268690       10.17643100        8.34299820
C        0.43302706        0.47975656        5.75701770
C        1.29823090        1.35575390        6.62904420
C        9.30210080        2.19607720        9.25935260
C       10.16739300        3.04316340       10.22654200
C        9.35680310        3.98906720        0.37818226
C       10.30025100        4.84168510        1.27239380
C        0.44383482        2.18264440        0.43390413
C        1.31646920        3.06191670        1.33993970
C        0.45544562        3.97663400        9.31833510
C        1.35519170        4.81893510       10.18955400
C        9.31746940        2.16789550        2.21074320
C       10.22249700        3.13059100        3.18556860
C        9.31285660        4.01815860        4.04772480
C       10.20592900        4.84444740        4.89281670
C        0.39183352        2.15834710        3.96529490
C        1.34006600        3.13557770        4.92141710
C        0.46645870        4.05802400        2.22699440
C        1.42863030        4.88083460        3.12704090
C        9.22228350        2.19604910        5.73023000
C       10.16964200        3.10555720        6.67167550
C        9.31623210        4.08016340        7.55972890
C       10.25124600        4.84937080        8.45042050
C        0.40456784        2.18804010        7.53119570
C        1.27408760        3.08283320        8.47620840
C        0.44931544        4.01026720        5.79361110
C        1.30283300        4.91909450        6.62743320
C        9.26003490        5.76328060        9.28849060
C       10.17998500        6.62832030       10.21666300
C        9.27297430        7.58459180        0.40967733
C       10.14477000        8.52583620        1.30246710
C        0.43909655        5.74275460        0.40185494
C        1.31350580        6.68783390        1.27044180
C        0.28986163        7.51025200        9.32028930
C        1.30729050        8.43897860       10.24689600
C        9.30471910        5.81554410        2.15518840
C       10.24193100        6.64353630        3.08155040
C        9.36407880        7.50870710        4.07763240
C       10.24015000        8.49497750        4.83153990
C        0.51162016        5.75321530        3.92004580
C        1.29387290        6.69542630        4.92796220
C        0.41502667        7.53571740        2.26915140
C        1.29405370        8.38450420        3.12216080
C        9.35888810        5.76432800        5.77994620
C       10.17891000        6.69389810        6.59383410
C        9.34645850        7.54290460        7.54972870
C       10.19712600        8.45012810        8.49272620
C        0.42797684        5.75449870        7.58819240
C        1.25308340        6.58739640        8.44499630
C        0.48765951        7.57388490        5.85714710
C        1.30238930        8.42609840        6.69893240
C        2.24805510        9.34742870        9.33250810
C        3.08924370       10.19157600       10.22493300
C        2.16130980        0.50985097        0.45234407
C        3.06780550        1.32776760        1.32154070
C        3.91642410        9.32392400        0.53857464
C        4.82432490       10.20738900        1.41070720
C        4.02302400        0.41846685        9.26594470
C        4.91163850        1.25702950       10.17201300
C        2.22774610        9.40872320        2.26191390
C        3.06571290       10.25803000        3.13633420
C        2.23336200        0.47347751        4.00090710
C        3.15037960        1.37783880        4.88574070
C        3.95229540        9.31122570        4.01447010
C        4.92557230       10.22927700        4.88050690
C        3.95302360        0.46221957        2.19433200
C        4.91347360        1.32502060        3.16199760
C        2.23205130        9.37815430        5.76068340
C        3.14257710       10.28044800        6.63224350
C        2.19239120        0.44564651        7.55498880
C        3.15036910        1.27495570        8.42962220
C        4.00956380        9.36884840        7.51623520
C        4.87826120       10.17693100        8.42029460
C        4.04312240        0.50739989        5.72279480
C        4.95039470        1.36934820        6.65525320
C        2.25596220        2.14771700        9.31358480
C        3.08433460        3.10441750       10.21436700
C        2.21607910        3.97009890        0.41133257
C        3.15635210        4.90699430        1.32944580
C        3.98261390        2.26122600        0.37500393
C        4.90134870        3.10660650        1.32103190
C        3.97927300        4.04202460        9.37465060
C        4.89742010        4.93978820       10.18616700
C        2.31236030        2.19425530        2.18417470
C        3.17327150        3.09550830        3.06903070
C        2.20271380        3.97328070        4.00292940
C        3.13514830        4.87065430        4.84700530
C        3.98315750        2.28292180        4.01497930
C        4.87306020        3.13384140        4.85976220
C        4.01970610        4.07100090        2.20107140
C        4.90227620        4.92406500        3.11842240
C        2.20252430        2.17579730        5.78839360
C        3.13708240        3.08545380        6.64551360
C        2.17042970        4.01484280        7.49937960
C        3.02993450        4.89151110        8.45083390
C        4.04179040        2.15795640        7.54660250
C        4.90264880        3.12996850        8.45959720
C        4.07621470        4.03048500        5.72617410
C        4.93294720        4.84780190        6.64753230
C        2.18951220        5.76077970        9.33970030
C        3.10733450        6.72651460       10.23007300
C        2.24517180        7.56617190        0.47039691
C        3.13174440        8.50410820        1.32731800
C        3.95135390        5.82152420        0.44549096
C        4.82695110        6.69469590        1.39213040
C        3.98649380        7.49825050        9.28583420
C        4.85657120        8.38311750       10.24542600
C        2.15493230        5.84079760        2.15844340
C        3.11720010        6.69122170        3.16361540
C        2.20169070        7.55806310        4.03288880
C        3.04138540        8.53584260        4.85315880
C        3.99557600        5.80168000        4.03471620
C        4.91639410        6.66318600        4.87251290
C        3.99882090        7.54531550        2.32807980
C        4.91393410        8.41504120        3.15067300
C        2.24089440        5.78438280        5.70489390
C        3.11014150        6.58773160        6.64902860
C        2.16900290        7.50112110        7.55479010
C        3.16288180        8.41359270        8.43218260
C        3.96142310        5.70399310        7.51842500
C        4.87407560        6.65466440        8.36555720
C        4.00447950        7.55329370        5.72108500
C        4.85844760        8.46332160        6.62161770
C        5.83327080        9.27171380        9.29727870
C        6.65591810       10.14474800       10.17056700
C        5.74477260        0.43773142        0.46116995
C        6.65448900        1.39104340        1.25053700
C        7.55317250        9.23254670        0.48913828
C        8.35639190       10.18715500        1.36078400
C        7.46113940        0.42583498        9.35804480
C        8.45718380        1.37956080       10.17883400
C        5.74064390        9.27562530        2.24187610
C        6.61905360       10.19021800        3.07277590
C        5.77056150        0.43594189        4.00449570
C        6.65312460        1.32652940        4.93966230
C        7.57077860        9.34410990        4.05254390
C        8.48407000       10.27675000        4.84988340
C        7.51598200        0.37639603        2.18538460
C        8.46368910        1.35659320        3.09394070
C        5.75983250        9.30801350        5.78812310
C        6.65623190       10.14534000        6.68459050
C        5.83197450        0.42574132        7.53097710
C        6.65916060        1.27858180        8.37648320
C        7.52105260        9.27794290        7.52973900
C        8.36311100       10.18093100        8.47852250
C        7.55160760        0.44218934        5.77212220
C        8.45281810        1.30958430        6.59855570
C        5.82653170        2.17340190        9.24713640
C        6.71086030        3.12949790       10.18567400
C        5.81388950        3.92439400        0.43108416
C        6.64755870        4.90144070        1.35315740
C        7.57827940        2.23918820        0.40299937
C        8.42661710        3.03746440        1.28070360
C        7.54108520        4.03567970        9.33879720
C        8.44248150        4.83241190       10.21341400
C        5.70110960        2.24338320        2.17880840
C        6.59402330        3.07826600        3.05614430
C        7.53183700        2.17599570        3.96821160
C        8.45328730        3.14415260        4.87219810
C        7.52022080        3.99021520        2.22404690
C        8.45603150        4.87262090        3.13005700
C        5.79888360        2.25040000        5.75772560
C        6.70378960        3.07466040        6.59715480
C        5.78749620        3.99284380        7.47255300
C        6.68691130        4.91143100        8.48242940
C        7.61514220        2.21807540        7.61416050
C        8.41583810        3.08499570        8.41316690
C        7.60312280        4.01118030        5.87278200
C        8.49436560        4.90531720        6.63058870
C        5.72651390        5.78690370        9.26149650
C        6.71359710        6.59661250       10.26460600
C        5.78502480        7.59968470        0.47923987
C        6.63985210        8.42914840        1.33294080
C        7.51041520        5.73498830        0.46191547
C        8.54122220        6.58834690        1.38590770
C        7.55025170        7.51588280        9.29905110
C        8.44372870        8.42076620       10.21024600
C        5.77400350        5.72551470        2.21108430
C        6.65168330        6.68549860        3.10917120
C        5.77452110        7.51822580        4.00581710
C        6.64371590        8.41842340        4.83528460
C        7.69231780        5.90275420        3.92930630
C        8.46759660        6.68594840        4.97847160
C        7.48470350        7.51662360        2.30569000
C        8.38124190        8.42863370        3.18941720
C        5.79747350        5.80792050        5.88855490
C        6.65495040        6.62454870        6.73022650
C        5.81977520        7.56443660        7.51173030
C        6.68504520        8.46615570        8.41514100
C        7.52102980        5.72941920        7.47617720
C        8.39280490        6.59865480        8.42038130
C        7.48545420        7.53863440        5.74867950
C        8.39280200        8.42892690        6.63145490
N        5.72833520        3.93837540        3.91434940
