&CONTROL
calculation = 'scf'
restart_mode = 'from_scratch'
verbosity = 'high'
wf_collect = .true.
pseudo_dir='/home/arpank/pseudopotentials/'
tprnfor = .true.
/
&SYSTEM
ibrav = 0
ecutwfc = 60
tot_charge = -1
nspin = 2
tot_magnetization = 2.0
nbnd = 480
nat = 215
ntyp = 2
input_dft = 'PBE0'
exx_fraction = 0.18
ecutfock = 120
/
&ELECTRONS
conv_thr = 1D-8
diago_full_acc=.true.
mixing_beta = 0.3
/
&IONS
ion_dynamics='bfgs'
ion_positions='default'
/
K_POINTS gamma
ATOMIC_SPECIES
C  12.01099968  C_ONCV_PBE-1.0.upf
N  14.00699997  N_ONCV_PBE-1.0.upf
CELL_PARAMETERS angstrom
    10.65000000      0.00000000      0.00000000
     0.00000000     10.65000000      0.00000000
     0.00000000      0.00000000     10.65000000
ATOMIC_POSITIONS angstrom
C        9.20230400        9.39294900        9.28815190
C       10.23828100       10.23319100       10.23559400
C        9.32145800        0.50427813        0.39726419
C       10.14933200        1.34521510        1.32858510
C        0.40586212        9.25151860        0.48746811
C        1.32436580       10.20028400        1.34328840
C        0.36215969        0.40993687        9.37207030
C        1.35012890        1.34284960       10.26634800
C        9.30658510        9.33944620        2.22533260
C       10.16768900       10.22418800        3.09617860
C        9.34840820        0.43043692        4.04282160
C       10.16658000        1.34394240        4.84119040
C        0.44530154        9.35556420        3.91309450
C        1.30830340       10.22637200        4.84438920
C        0.45584743        0.42848307        2.22409200
C        1.27363480        1.31383530        3.12618880
C        9.35823520        9.24613930        5.80314230
C       10.22687100       10.14518600        6.63567810
C        9.31225670        0.50175770        7.58970680
C       10.23797000        1.27478230        8.45447410
C        0.48505080        9.27115770        7.52574990
C        1.27012740       10.15168000        8.45013940
C        0.40938126        0.48918699        5.65501280
C        1.30006690        1.35534770        6.58251340
C        9.30999060        2.17540580        9.37678740
C       10.24779600        3.13004780       10.23838100
C        9.31499160        4.01679750        0.42230427
C       10.25814700        4.88235130        1.31460330
C        0.40066573        2.18313360        0.40669700
C        1.31160150        3.12685460        1.35466800
C        0.44892580        4.01794860        9.33037380
C        1.33167500        4.88967490       10.21322100
C        9.32847100        2.18607350        2.18496040
C       10.17488700        3.12451650        3.08031320
C        9.31074330        4.06139880        3.95769290
C       10.21925200        4.89016560        4.82402540
C        0.41235261        2.23994370        3.91552630
C        1.37072480        3.10819380        4.91730140
C        0.44589771        3.96130220        2.21488730
C        1.31128630        4.89608060        3.09875240
C        9.33076160        2.19351460        5.72592240
C       10.21046400        3.08840930        6.64077970
C        9.31717040        3.93282790        7.52747810
C       10.18277400        4.85794330        8.46285530
C        0.45405354        2.22337770        7.58582920
C        1.31681320        3.09634280        8.43726430
C        0.42806802        3.93747620        5.76916310
C        1.34644850        4.92656960        6.69680820
C        9.37024020        5.72898980        9.31548710
C       10.18436800        6.58453310       10.24967600
C        9.40322730        7.53195680        0.51326315
C       10.26838700        8.34968460        1.35117530
C        0.50791277        5.78577430        0.44557693
C        1.34671040        6.67588640        1.36623140
C        0.43250409        7.52150810        9.34864930
C        1.32402670        8.43355260       10.22961700
C        9.32653330        5.75123420        2.15905760
C       10.26655500        6.64904720        3.09345600
C        9.33131330        7.55387590        4.03197470
C       10.17708100        8.42226320        4.88805270
C        0.49437926        5.74937000        4.08729340
C        1.33749380        6.68457880        4.95097900
C        0.51875381        7.55083360        2.23621580
C        1.40832020        8.40314850        3.10420530
C        9.30261230        5.73399720        5.74740690
C       10.26088300        6.67685500        6.61280710
C        9.35189490        7.53766910        7.54354480
C       10.13671500        8.41425630        8.43850870
C        0.41632051        5.80982900        7.53937380
C        1.28201370        6.63856200        8.41420030
C        0.42507929        7.53099870        5.75789790
C        1.34854990        8.46410050        6.65082780
C        2.22771730        9.31810140        9.33818650
C        3.12130450       10.11646600       10.20303700
C        2.24434660        0.40684483        0.44405005
C        3.13289490        1.33777760        1.38499390
C        4.02850910        9.26432060        0.37608581
C        4.79290490       10.25084200        1.33261300
C        3.95738710        0.45202043        9.31393730
C        4.86240670        1.31176500       10.19206400
C        2.27298300        9.26731500        2.20076140
C        3.12735730       10.18927800        3.04096940
C        2.21027000        0.44222492        3.92010210
C        3.05000560        1.34078980        4.87940690
C        4.06519200        9.33276870        4.04819150
C        4.86622130       10.24007500        4.83568810
C        3.99236230        0.40005098        2.22878260
C        4.86946360        1.30193400        3.10932640
C        2.25854480        9.38306660        5.87314050
C        3.04082640       10.24595100        6.64973470
C        2.11716740        0.48029847        7.48329840
C        3.01078120        1.38189290        8.43234750
C        3.89426720        9.38043480        7.57448680
C        4.77374250       10.21446200        8.40002030
C        3.92044750        0.44184271        5.69809090
C        4.88957790        1.37025610        6.60986510
C        2.20246250        2.34153170        9.32576980
C        3.12254670        3.10870590       10.22059200
C        2.18120520        3.99470830        0.42750080
C        3.08457190        4.86201350        1.32706880
C        3.91678290        2.21013500        0.50673635
C        4.88951190        3.14418040        1.28776140
C        4.02822520        3.98027720        9.29444120
C        4.87784120        4.92140830       10.28176600
C        2.24278910        2.18753620        2.29138680
C        3.18697530        3.11340910        3.12740150
C        2.23137250        4.01965080        4.01645610
C        3.11560220        4.85695280        4.88431910
C        4.02689380        2.26179800        3.98433790
C        4.93918770        3.17134940        4.88025690
C        4.00290850        4.00881890        2.09135300
C        4.91924310        4.78752950        3.09340670
C        2.19802310        2.23401660        5.78940850
C        3.09324840        3.12604070        6.66512520
C        2.29327580        4.03066380        7.56183480
C        3.13647830        4.88893370        8.40941330
C        3.95547720        2.22417950        7.57885060
C        4.86879420        3.16530130        8.38884460
C        4.07997940        4.04253650        5.72292110
C        4.87535900        4.89978790        6.61135680
C        2.25029380        5.75345890        9.37363610
C        3.13157550        6.68743020       10.17051400
C        2.20691870        7.51443290        0.42197921
C        3.05533830        8.53332760        1.29978520
C        3.96345260        5.74317390        0.45812218
C        4.86139540        6.56145390        1.31806390
C        4.00507780        7.54044780        9.37771570
C        4.82129460        8.42785260       10.19563100
C        2.19142810        5.74947840        2.25490570
C        3.16025190        6.63327860        3.13201290
C        2.26755790        7.58303830        3.98587030
C        3.11853770        8.47472310        4.91949510
C        4.01206450        5.70747320        4.00549690
C        4.93662320        6.62746070        4.95164640
C        4.01971190        7.61654150        2.27840770
C        4.87867990        8.47170690        3.11337720
C        2.19239310        5.75041210        5.74572080
C        3.03449570        6.63449440        6.69241000
C        2.20405070        7.53375800        7.58728280
C        3.09859840        8.47470010        8.43478640
C        3.93879990        5.78903660        7.56534110
C        4.84164720        6.66363870        8.46725300
C        3.97961870        7.56172800        5.85968760
C        4.80448930        8.46108410        6.69332050
C        5.70027080        9.28846970        9.38573680
C        6.70304720       10.16299100       10.18230700
C        5.83025730        0.42103158        0.37256047
C        6.66411020        1.33960120        1.31645650
C        7.59368660        9.28085090        0.42144224
C        8.37303700       10.26070000        1.35009380
C        7.50659780        0.49856635        9.31336260
C        8.35196930        1.40375130       10.33836400
C        5.76942630        9.29168420        2.26265650
C        6.67369990       10.24469300        3.09801090
C        5.72945540        0.52350447        4.05908050
C        6.69706970        1.37534340        4.88991490
C        7.48203460        9.32792070        4.02007200
C        8.46878020       10.15423900        4.86446520
C        7.54623580        0.42399021        2.31743490
C        8.43370840        1.37155970        3.07870580
C        5.66936960        9.28221040        5.77433450
C        6.58970870       10.19399300        6.61342360
C        5.72608620        0.51356149        7.50799080
C        6.64907510        1.39453640        8.36512600
C        7.59567650        9.35366910        7.49835450
C        8.45133750       10.26048300        8.47745670
C        7.50286120        0.40638159        5.73904750
C        8.37772990        1.36041270        6.65256820
C        5.78401970        2.19779150        9.37411020
C        6.71460610        3.13260160       10.21701900
C        5.82452900        3.93700820        0.39669689
C        6.64356940        4.93175840        1.28507440
C        7.47827870        2.21198130        0.43930159
C        8.39399370        3.13211680        1.28501020
C        7.52676720        3.95633920        9.31230830
C        8.39621590        4.85736520       10.24423500
C        5.72764020        2.18312940        2.14340890
C        6.60835900        3.12575230        3.06513650
C        7.55184660        2.17533940        3.94213890
C        8.48287330        3.11583360        4.88551270
C        7.59096030        4.02905390        2.19904300
C        8.41126700        4.91431260        3.05131070
C        5.80782090        2.21716340        5.81293140
C        6.65578550        3.13904780        6.65243820
C        5.86961670        4.02493590        7.58845490
C        6.68576940        4.81784100        8.46965230
C        7.53001590        2.19305930        7.56941820
C        8.39219020        3.02063870        8.46398240
C        7.63526170        3.88129790        5.86558900
C        8.41961680        4.83272270        6.68521560
C        5.82017650        5.72992770        9.32459440
C        6.70535080        6.59237050       10.18653400
C        5.77328610        7.45500880        0.45123740
C        6.66255560        8.36668020        1.33279180
C        7.61930730        5.78168090        0.44049057
C        8.47964090        6.69761100        1.31726860
C        7.62297980        7.57238590        9.32761930
C        8.51412400        8.39026730       10.15045700
C        5.80220040        5.74769140        2.23835910
C        6.66940950        6.66643190        3.05940290
C        5.75541060        7.52069710        3.94788490
C        6.57704040        8.37733420        4.79866560
C        7.63868970        5.77391520        3.94831790
C        8.44957640        6.65333210        4.87704380
C        7.59841840        7.58641500        2.19114310
C        8.38052020        8.47172580        3.10445720
C        5.76364420        5.81891840        5.85145400
C        6.63321530        6.66213260        6.58996030
C        5.79233990        7.54437490        7.55504990
C        6.69828920        8.37566710        8.43116050
C        7.60125470        5.81879370        7.57042640
C        8.49343850        6.63938130        8.41145980
C        7.52136150        7.55278380        5.69660830
C        8.40113250        8.37761380        6.62687200
N        5.74153370        3.92714720        3.90195240
