&CONTROL
calculation = 'scf'
restart_mode = 'from_scratch'
verbosity = 'high'
wf_collect = .true.
pseudo_dir='/home/arpank/pseudopotentials/'
tprnfor = .true.
/
&SYSTEM
ibrav = 0
ecutwfc = 60
tot_charge = -1
nspin = 2
tot_magnetization = 2.0
nbnd = 480
nat = 215
ntyp = 2
input_dft = 'PBE0'
exx_fraction = 0.18
ecutfock = 120
/
&ELECTRONS
conv_thr = 1D-8
diago_full_acc=.true.
mixing_beta = 0.3
/
&IONS
ion_dynamics='bfgs'
ion_positions='default'
/
K_POINTS gamma
ATOMIC_SPECIES
C  12.01099968  C_ONCV_PBE-1.0.upf
N  14.00699997  N_ONCV_PBE-1.0.upf
CELL_PARAMETERS angstrom
    10.65000000      0.00000000      0.00000000
     0.00000000     10.65000000      0.00000000
     0.00000000      0.00000000     10.65000000
ATOMIC_POSITIONS angstrom
C        9.38893190        9.35463650        9.25239640
C       10.27339600       10.20950000       10.16094400
C        9.34310770        0.53182130        0.50311912
C       10.26406800        1.35040460        1.29219640
C        0.49223572        9.31042170        0.48675896
C        1.40974010       10.21145000        1.31256090
C        0.45478935        0.39935483        9.35763200
C        1.37062030        1.31754440       10.11826600
C        9.28340530        9.31489310        2.16369920
C       10.21907900       10.22680200        3.17045370
C        9.38502420        0.46567024        4.02246800
C       10.17986100        1.38647070        4.85211930
C        0.42788236        9.36795540        4.06025830
C        1.25315200       10.17635800        4.94434540
C        0.46926869        0.45121087        2.13803430
C        1.33148680        1.29585720        3.13780610
C        9.31451430        9.32691990        5.74798930
C       10.23113000       10.15637300        6.62190750
C        9.34317330        0.43154811        7.55477110
C       10.21983000        1.31958430        8.45032030
C        0.41500752        9.26412650        7.63437820
C        1.21827350       10.19767700        8.44750040
C        0.39997036        0.41970252        5.77331920
C        1.28057550        1.28511480        6.60876120
C        9.37838700        2.21308590        9.26208830
C       10.21337500        3.10476770       10.19786900
C        9.31605430        3.90557040        0.48630842
C       10.25921800        4.93579450        1.34492560
C        0.52646396        2.20928840        0.46676907
C        1.29339960        3.10544710        1.33806410
C        0.56416632        3.99171640        9.39409520
C        1.34960710        4.91985900       10.26172000
C        9.28169490        2.30696150        2.23696540
C       10.20037600        3.15613470        3.17208440
C        9.28871550        4.09386110        3.99142180
C       10.24596300        4.96429840        4.90338840
C        0.41687260        2.20277050        3.98438180
C        1.24776230        3.05800050        4.85352550
C        0.48153375        4.01085250        2.18203750
C        1.31058190        4.90774490        3.09774550
C        9.26631770        2.28567090        5.66046760
C       10.14347500        3.07629540        6.67762660
C        9.38284640        3.92180150        7.49108460
C       10.12887700        4.92721930        8.44030480
C        0.39845327        2.27958570        7.52563310
C        1.33604540        3.08866010        8.42128970
C        0.39044938        4.01085990        5.73912620
C        1.32504010        4.87980110        6.65402600
C        9.26009130        5.73531860        9.32965940
C       10.20779400        6.62340200       10.19484500
C        9.33147680        7.56122520        0.41907167
C       10.25534700        8.43673300        1.29513760
C        0.41126086        5.78140030        0.40241293
C        1.27052860        6.69797910        1.34195590
C        0.44699617        7.63115750        9.25305670
C        1.38437300        8.41652470       10.24507700
C        9.26234440        5.77574750        2.16170380
C       10.17472000        6.69475750        3.16195810
C        9.34318160        7.57042910        3.97369980
C       10.18777100        8.49563650        4.91559670
C        0.40886467        5.77701370        4.00864750
C        1.31259110        6.73388620        4.90934030
C        0.40997157        7.56172710        2.17869950
C        1.32894100        8.51548640        3.10374540
C        9.32096690        5.82021750        5.76192030
C       10.22895800        6.65948670        6.63373010
C        9.28591070        7.52332150        7.49829090
C       10.13458700        8.39201920        8.37333310
C        0.43332719        5.73005460        7.57822150
C        1.30595790        6.63514540        8.41226850
C        0.41723593        7.60099890        5.84735300
C        1.36609580        8.39545370        6.75285500
C        2.20082160        9.31951500        9.33950100
C        3.14885800       10.19851400       10.28039400
C        2.23382590        0.47361230        0.44354763
C        3.08716680        1.36569690        1.31054430
C        4.00410210        9.32181830        0.50646040
C        4.89624730       10.21001900        1.25851270
C        3.97133940        0.41060113        9.31691730
C        4.89600260        1.35402120       10.19539800
C        2.24667100        9.32695510        2.26173520
C        3.14240740       10.18762400        3.09386540
C        2.23682520        0.39471816        4.03770640
C        3.06976580        1.34032880        4.82487660
C        4.06112460        9.29836050        3.95928070
C        4.80586300       10.20252700        4.92248870
C        3.97960240        0.40676613        2.12753170
C        4.87120370        1.34395890        3.11348250
C        2.24211950        9.30684770        5.79251250
C        3.05631890       10.11564300        6.66928400
C        2.19220030        0.43173318        7.56765040
C        3.10160010        1.30501950        8.42038910
C        4.00316040        9.25455270        7.59087420
C        4.88626780       10.15872000        8.44858020
C        3.93378220        0.41166505        5.72046200
C        4.86971290        1.37298680        6.67985380
C        2.27175450        2.20999870        9.33672720
C        3.12551280        3.20185550       10.19722500
C        2.24430850        4.07402640        0.46889237
C        3.15197700        4.87315890        1.32912700
C        3.95778750        2.15953720        0.42411528
C        4.88574410        2.98953230        1.30694810
C        4.02466990        4.03861460        9.32162590
C        4.85561620        4.92272800       10.21078600
C        2.21656760        2.16928210        2.21077470
C        3.06784330        3.06074990        3.03351080
C        2.21768280        4.04255120        3.93798020
C        3.07857220        4.93306810        4.84407080
C        3.99244000        2.24991300        4.05116860
C        4.87021060        3.13823930        4.89497920
C        3.91136800        3.97014860        2.18851140
C        4.83144510        4.89782650        3.14421750
C        2.26654290        2.22396260        5.74568940
C        3.14905080        3.11628090        6.63152060
C        2.24899990        3.99218430        7.50176250
C        3.10676450        4.94297640        8.39821170
C        3.94835570        2.16326590        7.55198630
C        4.92397330        3.06495160        8.42688780
C        3.91592260        4.07056940        5.73457300
C        4.94434070        4.85152860        6.60494300
C        2.16444080        5.83244710        9.31072350
C        3.13373790        6.64455150       10.23850500
C        2.24190930        7.57367710        0.43256199
C        3.09955270        8.36548880        1.35590710
C        3.99765480        5.79276320        0.44560195
C        4.84117390        6.71326410        1.34423270
C        4.05846300        7.47236300        9.36640410
C        4.87295260        8.39788810       10.20767900
C        2.22148320        5.77200130        2.28239510
C        3.18622740        6.69805540        3.13639080
C        2.26167960        7.62827370        4.01408740
C        3.20960280        8.40722290        4.85924750
C        4.07066450        5.74853680        4.00033670
C        4.95732520        6.70432000        4.84004280
C        3.97846440        7.59730850        2.22907980
C        4.93322920        8.42439960        3.13328010
C        2.19023460        5.72930550        5.72047280
C        3.09363120        6.63874900        6.63678150
C        2.26499120        7.46702040        7.56274770
C        3.12858920        8.36464940        8.46550820
C        3.94789320        5.76401160        7.50890220
C        4.86368450        6.61297370        8.36662960
C        4.03374290        7.48113190        5.75013100
C        4.85783150        8.45047420        6.60590280
C        5.73469460        9.30876980        9.37482650
C        6.59926880       10.14214800       10.20999700
C        5.81837200        0.41282845        0.45097908
C        6.70233020        1.31333440        1.37475220
C        7.58130490        9.42152450        0.39881239
C        8.44484610       10.21046700        1.42158930
C        7.53207340        0.41216571        9.30765770
C        8.39685460        1.29130290       10.21115000
C        5.77669170        9.29519770        2.18454060
C        6.71676510       10.12839300        3.12994070
C        5.73588150        0.46451857        3.96803180
C        6.62644470        1.36005400        4.86792650
C        7.58511740        9.33610060        3.99216000
C        8.47557470       10.18651600        4.91442030
C        7.61719440        0.41667165        2.19999180
C        8.40421370        1.29146180        3.13400000
C        5.75565880        9.37426230        5.78461370
C        6.64993520       10.18301800        6.67467630
C        5.78741490        0.45357767        7.49932920
C        6.66333110        1.32279360        8.49179420
C        7.58993080        9.31850210        7.51519990
C        8.44871110       10.25480900        8.44378890
C        7.52689830        0.42756504        5.71666840
C        8.38361680        1.28466890        6.61466250
C        5.74945780        2.13572400        9.26640810
C        6.67946970        3.03394400       10.27345500
C        5.79588020        3.99584670        0.43563095
C        6.66416990        4.88777440        1.32166370
C        7.56800440        2.12106070        0.51103626
C        8.40218210        3.06733500        1.38689280
C        7.56171700        3.92422610        9.29418860
C        8.36224130        4.85342720       10.24076700
C        5.73993960        2.14177180        2.22488110
C        6.61414720        3.07558770        3.06377110
C        7.48583680        2.27754870        3.97939080
C        8.39340790        3.18147740        4.89521330
C        7.45484670        3.96056550        2.20310920
C        8.35626330        4.94318900        3.11535850
C        5.76200990        2.22794090        5.82167950
C        6.72536380        3.06961530        6.65114690
C        5.77255430        3.99515400        7.46711650
C        6.65853030        4.88821810        8.36693960
C        7.59668810        2.19099270        7.59735660
C        8.45718880        3.10231580        8.45877740
C        7.59223060        3.90024410        5.82599550
C        8.42757980        4.87855950        6.61388510
C        5.79891120        5.75875080        9.31988670
C        6.59921970        6.61886170       10.23170900
C        5.78949940        7.48563630        0.40827592
C        6.64968680        8.50362370        1.31614950
C        7.56366290        5.77374970        0.44351801
C        8.48653520        6.64728910        1.33029780
C        7.51530220        7.57927470        9.31834650
C        8.44602900        8.46900410       10.17990000
C        5.79142550        5.74246740        2.24453230
C        6.71057880        6.71504010        3.17919050
C        5.78193170        7.56766090        4.01952530
C        6.65099530        8.46540170        4.85535230
C        7.57120890        5.90150530        4.00737510
C        8.40554000        6.69569680        4.89791030
C        7.59472950        7.62200460        2.20558120
C        8.43250990        8.39101380        3.07201190
C        5.69343220        5.81389890        5.88798670
C        6.62515180        6.58963790        6.68501910
C        5.78449540        7.49149070        7.54436520
C        6.58091190        8.44590840        8.50073200
C        7.51914130        5.78809910        7.48309410
C        8.39663240        6.60091430        8.43855860
C        7.57979190        7.57037730        5.76112930
C        8.41246190        8.45525950        6.67593020
N        5.64005340        3.91771580        3.88051000
