&CONTROL
calculation = 'scf'
restart_mode = 'from_scratch'
verbosity = 'high'
wf_collect = .true.
pseudo_dir='/home/arpank/pseudopotentials/'
tprnfor = .true.
/
&SYSTEM
ibrav = 0
ecutwfc = 60
tot_charge = -1
nspin = 2
tot_magnetization = 2.0
nbnd = 480
nat = 215
ntyp = 2
input_dft = 'PBE0'
exx_fraction = 0.18
ecutfock = 120
/
&ELECTRONS
conv_thr = 1D-8
diago_full_acc=.true.
mixing_beta = 0.3
/
&IONS
ion_dynamics='bfgs'
ion_positions='default'
/
K_POINTS gamma
ATOMIC_SPECIES
C  12.01099968  C_ONCV_PBE-1.0.upf
N  14.00699997  N_ONCV_PBE-1.0.upf
CELL_PARAMETERS angstrom
    10.65000000      0.00000000      0.00000000
     0.00000000     10.65000000      0.00000000
     0.00000000      0.00000000     10.65000000
ATOMIC_POSITIONS angstrom
C        9.38709230        9.31014330        9.28524430
C       10.19856900       10.20006800       10.18675000
C        9.32652670        0.41152939        0.44719308
C       10.26076900        1.43632280        1.26911870
C        0.41202246        9.35370800        0.43976772
C        1.31859500       10.23187600        1.46443650
C        0.49269975        0.41272945        9.32941780
C        1.39248170        1.30819690       10.15192200
C        9.34340290        9.30705970        2.07049080
C       10.16724100       10.15483900        3.13227440
C        9.23974390        0.47538775        4.01877150
C       10.23055900        1.31581910        4.97785910
C        0.47892275        9.30235230        4.03451450
C        1.34491490       10.13608500        4.87086740
C        0.39328020        0.44497245        2.25727300
C        1.37479870        1.30345990        3.11910690
C        9.32084490        9.24644290        5.74531160
C       10.24425800       10.19236900        6.65703330
C        9.39916390        0.46150918        7.57212660
C       10.21650900        1.28490510        8.45667200
C        0.47992152        9.31869800        7.52079380
C        1.35477690       10.20615100        8.42050040
C        0.47147503        0.42333442        5.77365030
C        1.36987130        1.28794600        6.67989950
C        9.39849670        2.16396460        9.35494180
C       10.21547300        3.10600050       10.24239000
C        9.35832760        4.00454680        0.45414555
C       10.18568800        4.93318010        1.33506590
C        0.43871658        2.28520530        0.41622213
C        1.27263970        3.03059010        1.34067050
C        0.43956849        3.88624270        9.38778120
C        1.30483690        4.86649540       10.19216000
C        9.36327380        2.23650120        2.21009770
C       10.21834000        3.11117890        3.14060430
C        9.33447820        4.03203480        3.98544290
C       10.13641600        4.84296760        4.83406130
C        0.41212339        2.18380730        4.02329560
C        1.35126820        3.12118490        4.87581360
C        0.43320198        4.00205130        2.20052120
C        1.27973390        4.91681460        3.06759530
C        9.33613780        2.29508450        5.76688030
C       10.20887800        3.06415650        6.68195520
C        9.27289860        3.97518890        7.54985450
C       10.17091900        4.85470080        8.42100190
C        0.50409113        2.23282560        7.60171900
C        1.35867820        3.19659680        8.42514010
C        0.40894954        4.01147890        5.80505640
C        1.30576860        4.91588930        6.68571680
C        9.30996800        5.75178920        9.39740460
C       10.13493900        6.62605710       10.19690800
C        9.22187340        7.61637260        0.38748705
C       10.21492900        8.42274400        1.30136260
C        0.40858786        5.73656840        0.42501512
C        1.32971990        6.69808740        1.26797090
C        0.40474083        7.53534690        9.31204220
C        1.35257420        8.38568890       10.21399100
C        9.28010580        5.81459770        2.21770530
C       10.20660600        6.73730650        3.06032540
C        9.32292950        7.52824180        3.98616380
C       10.24786300        8.41463890        4.83083850
C        0.40107424        5.79777520        3.94326050
C        1.33469160        6.61148210        4.84085290
C        0.43714059        7.57864930        2.20285280
C        1.36607210        8.46120980        3.13484720
C        9.30598340        5.77804080        5.77046210
C       10.20517000        6.69103550        6.67481530
C        9.37275660        7.48211200        7.53146790
C       10.25395700        8.44665010        8.47660340
C        0.40372554        5.80493980        7.57296500
C        1.30294230        6.72564740        8.44107600
C        0.44272764        7.49436500        5.71826400
C        1.39104470        8.50274590        6.63672540
C        2.22251200        9.34111130        9.33204030
C        3.13659820       10.22340500       10.18637600
C        2.17044420        0.39765010        0.45303617
C        3.08951430        1.29632760        1.33213370
C        4.01704360        9.25880560        0.41304817
C        4.89540240       10.20573700        1.32115740
C        4.01265970        0.50768160        9.36508910
C        4.91085250        1.36459320       10.20311500
C        2.24957240        9.32900950        2.25669350
C        3.14630490       10.25951800        3.06353570
C        2.19692240        0.49296457        4.03337470
C        3.13152690        1.37462430        4.91884640
C        4.05068480        9.26465160        3.99630310
C        4.92115760       10.13652600        4.88739470
C        3.98821020        0.41113020        2.23883350
C        4.84311210        1.24901070        3.10722010
C        2.26557090        9.32536880        5.78653560
C        3.16741480       10.25728900        6.67461710
C        2.27128300        0.41319094        7.53988810
C        3.10027530        1.43273070        8.45217770
C        3.98314780        9.28323190        7.47615750
C        4.86200250       10.26094800        8.41954250
C        4.04009960        0.46803701        5.82676430
C        4.90301520        1.37872820        6.65887660
C        2.19060540        2.25991990        9.39472320
C        3.15432720        3.10048210       10.15184000
C        2.15924730        4.03449070        0.52142474
C        3.02720600        4.82875990        1.37517910
C        4.05851200        2.13403160        0.36415244
C        4.79415420        3.09919460        1.38984920
C        4.03456910        4.06448150        9.33537670
C        4.80445070        4.97583660       10.23614600
C        2.19024790        2.17945250        2.21032650
C        3.09113850        3.06244970        3.04246100
C        2.17018060        4.02896310        3.95276370
C        3.12185970        4.95143210        4.81043420
C        3.95024590        2.24348460        3.96557540
C        4.86399260        3.16050010        4.83707380
C        3.98722010        3.98018540        2.21314140
C        4.91083390        4.90192020        3.12723720
C        2.19079960        2.27700930        5.73421720
C        3.05920760        3.14649500        6.61746550
C        2.23603840        4.09156020        7.56552400
C        3.12689470        4.85672710        8.42867350
C        3.97067670        2.25528620        7.62531860
C        4.91844520        3.08965750        8.43520900
C        4.00480970        4.00842740        5.74502120
C        4.93786740        4.93231320        6.63308180
C        2.19539970        5.72058620        9.35757580
C        3.15810530        6.61675310       10.17409700
C        2.23627670        7.57881970        0.40862140
C        3.12218630        8.49064180        1.33186490
C        3.96830900        5.79102620        0.42990052
C        4.86832430        6.67218920        1.29303960
C        3.98972780        7.52358210        9.30449480
C        4.87435470        8.43333000       10.08916800
C        2.19672510        5.73496970        2.24280810
C        3.12135860        6.66341900        3.13034280
C        2.23310610        7.52814130        4.01838790
C        3.06862870        8.39432800        4.90546270
C        3.98674690        5.78573450        4.01649780
C        4.88934390        6.61588760        4.91768870
C        4.00230230        7.56128750        2.25896220
C        4.96526910        8.45275780        3.08335370
C        2.21921310        5.80667160        5.77924650
C        3.07830960        6.63111610        6.70623090
C        2.27068000        7.58919290        7.56711320
C        3.13535680        8.40029340        8.39854420
C        3.95845200        5.76169950        7.58852880
C        4.86840300        6.73705220        8.46068580
C        4.00050470        7.54285900        5.75773030
C        4.90540140        8.43396140        6.60265260
C        5.74254300        9.34922510        9.20166100
C        6.66978390       10.19042200       10.22043500
C        5.81270570        0.37962415        0.40552377
C        6.58080940        1.27078750        1.30183100
C        7.51022580        9.29161410        0.37067240
C        8.45432440       10.20436600        1.35904520
C        7.55474850        0.42077498        9.37297180
C        8.47195510        1.34755130       10.21235700
C        5.84065510        9.27213620        2.22236500
C        6.62258080       10.17382100        3.04565570
C        5.80396830        0.37871598        3.94688180
C        6.59614210        1.34988900        4.91283980
C        7.47229520        9.26376030        3.93883770
C        8.38647790       10.17813300        4.96857720
C        7.56194730        0.35705959        2.18754060
C        8.43702740        1.31988290        3.10526960
C        5.75628220        9.35762090        5.78119090
C        6.60774470       10.27072600        6.63684300
C        5.68534130        0.36087499        7.59504860
C        6.59602020        1.27995010        8.50189820
C        7.58160870        9.35898400        7.58259490
C        8.41100150       10.26692300        8.52240630
C        7.52879160        0.38506533        5.77406270
C        8.43505360        1.28606510        6.66480480
C        5.72890010        2.21891670        9.27132640
C        6.65868850        3.08103130       10.19058100
C        5.74349600        4.02827710        0.46774237
C        6.65172760        4.90300140        1.32710030
C        7.50643050        2.17172870        0.39958941
C        8.39787600        3.10624580        1.32206320
C        7.52649910        3.96111840        9.34865150
C        8.43903800        4.88279110       10.23486700
C        5.72818620        2.13799000        2.26550230
C        6.59403270        3.09595090        3.10236070
C        7.52078950        2.23656670        4.03466090
C        8.44335640        3.20550320        4.94733540
C        7.56433810        4.00824640        2.20170360
C        8.41426110        4.87288750        3.14424970
C        5.79463520        2.20194470        5.72798350
C        6.64970600        3.08947580        6.69442530
C        5.69801890        3.92964710        7.53064820
C        6.66530780        4.88645820        8.46858070
C        7.58165980        2.16800740        7.52517030
C        8.43089870        3.14687330        8.40165600
C        7.61617930        3.93130560        5.85312380
C        8.35823480        4.84571800        6.68556710
C        5.71948220        5.84857570        9.35203230
C        6.66289430        6.63390200       10.22476500
C        5.66807140        7.53961550        0.41737628
C        6.62915900        8.39504670        1.17654130
C        7.49890060        5.77888500        0.43157378
C        8.38337780        6.62433180        1.30458750
C        7.55989860        7.52770690        9.26579990
C        8.43749790        8.41000180       10.15273500
C        5.84941080        5.86633070        2.23094040
C        6.63979770        6.67989160        3.13344580
C        5.78315800        7.52359860        4.04287140
C        6.70410290        8.38893190        4.86299580
C        7.60421810        5.79681060        4.00066750
C        8.41804850        6.62927880        4.89338940
C        7.55227980        7.56531550        2.17848220
C        8.41731070        8.43889210        3.07624620
C        5.75565120        5.83665550        5.83878440
C        6.71232690        6.60887250        6.68190840
C        5.87298590        7.53896490        7.51874050
C        6.64728760        8.38916100        8.36014140
C        7.50840390        5.75126760        7.51430960
C        8.44298670        6.66635030        8.49208880
C        7.61712180        7.51155120        5.78097220
C        8.49948730        8.45407280        6.66585990
N        5.70243480        3.97975120        3.85457370
