&CONTROL
calculation = 'scf'
restart_mode = 'from_scratch'
verbosity = 'high'
wf_collect = .true.
pseudo_dir='/home/arpank/pseudopotentials/'
tprnfor = .true.
/
&SYSTEM
ibrav = 0
ecutwfc = 60
tot_charge = -1
nspin = 2
tot_magnetization = 2.0
nbnd = 480
nat = 215
ntyp = 2
input_dft = 'PBE0'
exx_fraction = 0.18
ecutfock = 120
/
&ELECTRONS
conv_thr = 1D-8
diago_full_acc=.true.
mixing_beta = 0.3
/
&IONS
ion_dynamics='bfgs'
ion_positions='default'
/
K_POINTS gamma
ATOMIC_SPECIES
C  12.01099968  C_ONCV_PBE-1.0.upf
N  14.00699997  N_ONCV_PBE-1.0.upf
CELL_PARAMETERS angstrom
    10.65000000      0.00000000      0.00000000
     0.00000000     10.65000000      0.00000000
     0.00000000      0.00000000     10.65000000
ATOMIC_POSITIONS angstrom
C        9.30960850        9.29845030        9.35366040
C       10.24957100       10.29539300       10.23951100
C        9.36175690        0.51136285        0.43704474
C       10.18498700        1.39341340        1.24864220
C        0.47879910        9.37322930        0.44611510
C        1.21049850       10.22249500        1.37022610
C        0.44787527        0.45241306        9.24793890
C        1.31386690        1.38398920       10.16134900
C        9.34547860        9.36869090        2.27882380
C       10.18351500       10.32122700        3.09430730
C        9.33326050        0.48139496        4.00306600
C       10.16999900        1.34610130        4.83755080
C        0.47323495        9.34510200        3.98750890
C        1.39653160       10.16665600        4.94286970
C        0.44660262        0.44856030        2.25095330
C        1.40561800        1.31127320        3.18219840
C        9.30471000        9.37668780        5.77925560
C       10.22593700       10.25261200        6.66103490
C        9.29810280        0.37558574        7.58193570
C       10.14022100        1.33654410        8.41690030
C        0.47193049        9.32938420        7.54575550
C        1.31361730       10.25089300        8.47935030
C        0.47264947        0.43297287        5.79515760
C        1.38081540        1.27938500        6.58155330
C        9.31672510        2.23426390        9.31141930
C       10.19525200        3.04371630       10.18650900
C        9.31657190        4.02227840        0.47221374
C       10.16376400        4.87849610        1.31869120
C        0.50067718        2.20816640        0.39184419
C        1.42019820        3.22602950        1.29834770
C        0.42089401        3.97225840        9.30165290
C        1.28730740        4.89150670       10.16823400
C        9.32046230        2.23143730        2.26173950
C       10.29182900        3.12723710        3.07505400
C        9.31758670        4.01432720        4.00179060
C       10.21099300        4.84031020        4.87572610
C        0.48316830        2.23159730        3.98836770
C        1.33739560        3.12753320        4.89469370
C        0.46504163        4.02973470        2.17696760
C        1.36417710        4.81354420        3.13807950
C        9.33117400        2.24017890        5.80528320
C       10.23147900        3.09257220        6.62027690
C        9.38123420        3.95664740        7.50160070
C       10.12457500        4.91712760        8.46674350
C        0.40990352        2.21142910        7.53527930
C        1.28837580        3.06152440        8.42385680
C        0.44739743        3.99148360        5.80336310
C        1.36022600        4.86304400        6.74660580
C        9.34894680        5.81680850        9.40719020
C       10.17125100        6.68364190       10.25837700
C        9.27702180        7.52807740        0.51637621
C       10.15618500        8.44677620        1.31956210
C        0.39026665        5.75229940        0.40729569
C        1.29848620        6.64624410        1.34485190
C        0.47685713        7.63520870        9.31447070
C        1.34011400        8.48574160       10.22045400
C        9.33521730        5.78886710        2.16448640
C       10.20569700        6.68604660        3.09993430
C        9.35729920        7.61754440        3.97078400
C       10.25506300        8.46919110        4.90468360
C        0.47214050        5.79405180        3.99269710
C        1.34519260        6.61511730        4.84406070
C        0.42818833        7.56190580        2.24050260
C        1.32216190        8.34116460        3.11502790
C        9.27893490        5.73629030        5.75427290
C       10.19880400        6.70446240        6.70677150
C        9.29027290        7.55729730        7.49099250
C       10.22257900        8.46310050        8.43421040
C        0.47576818        5.78747880        7.60324230
C        1.36275850        6.66928420        8.39610580
C        0.47396177        7.42882910        5.71554220
C        1.31144360        8.46942170        6.68218080
C        2.23532810        9.30839680        9.33154320
C        3.07972420       10.20853000       10.15336400
C        2.17596340        0.39491734        0.45648790
C        3.07888850        1.29602350        1.35425220
C        4.04714310        9.34858920        0.38646014
C        4.83753710       10.23906900        1.35657980
C        3.93664570        0.42535594        9.33760000
C        4.85568450        1.31998810       10.16449300
C        2.20364700        9.28297090        2.18298630
C        3.14972510       10.18209200        3.16400180
C        2.24453900        0.34553727        4.00107750
C        3.09876000        1.35239800        4.88086720
C        3.96951380        9.29397270        4.00636860
C        4.91683680       10.13855000        4.91497310
C        3.95517540        0.45993290        2.24201430
C        4.80652950        1.32482910        3.07830760
C        2.21667230        9.25005920        5.73544040
C        3.16462780       10.16429500        6.69836980
C        2.14652550        0.38756425        7.57883700
C        3.13812400        1.32021760        8.36541790
C        4.03279200        9.29463420        7.56486820
C        4.87649040       10.22252400        8.42717100
C        4.06181200        0.37652124        5.74774900
C        4.90297310        1.40333740        6.66725100
C        2.21841620        2.25832900        9.23901460
C        3.15246400        3.17014390       10.15817000
C        2.27806150        4.05647860        0.38980713
C        3.16491440        4.93175630        1.28057300
C        3.96011070        2.20962380        0.43554889
C        4.83698990        3.07642150        1.32078380
C        4.00062000        4.02719690        9.32502600
C        4.89336870        4.86235890       10.20304500
C        2.20774040        2.23840580        2.18656700
C        3.07735660        3.10680000        3.04005710
C        2.22161030        4.00395340        3.96201420
C        3.05293250        4.86270890        4.90906580
C        3.93493670        2.18706400        3.98043170
C        4.85806560        3.04851110        4.73367650
C        4.01952310        3.96634080        2.12559370
C        4.90443070        4.75913370        3.08985500
C        2.24626050        2.22883350        5.65081890
C        3.16795580        3.10099910        6.66299380
C        2.20153980        3.93514700        7.53214910
C        3.03718300        4.90641870        8.49825490
C        3.95313460        2.22788810        7.57853870
C        4.85461290        3.12962620        8.49008640
C        4.01005190        4.00559250        5.75638450
C        4.87435980        4.90905080        6.67761680
C        2.23208170        5.82443630        9.35127330
C        3.15723330        6.67406570       10.24632200
C        2.26146630        7.49729680        0.40740829
C        3.09960270        8.46292200        1.24384870
C        3.95669790        5.77975560        0.48562261
C        4.84599510        6.59859050        1.34335830
C        4.00166310        7.56518470        9.26143260
C        4.92947380        8.38920670       10.16368100
C        2.30175010        5.74447400        2.22721110
C        3.13259650        6.63014480        3.09275940
C        2.23647170        7.46972360        4.04266830
C        3.15234340        8.31972690        4.91451810
C        4.03080710        5.75368560        3.99139650
C        4.90271790        6.58693060        4.84414380
C        4.02983080        7.62024190        2.15958310
C        4.86317020        8.40025570        3.02581840
C        2.18761620        5.78358460        5.77199210
C        3.13952500        6.62477150        6.66022630
C        2.23843770        7.50697010        7.55900970
C        3.11804370        8.41248760        8.40146580
C        3.90573920        5.59639200        7.55467200
C        4.85585320        6.61438520        8.51258170
C        4.00458230        7.51771400        5.81854350
C        4.89230230        8.45022640        6.66006400
C        5.81780470        9.30271650        9.28825370
C        6.68026000       10.18200400       10.17104700
C        5.76712010        0.50262551        0.46134660
C        6.62793290        1.29119580        1.42633090
C        7.57046230        9.35432580        0.44908973
C        8.48020810       10.24559600        1.29522540
C        7.55398510        0.42887516        9.29157570
C        8.43033470        1.36957350       10.24061400
C        5.72972830        9.30062880        2.22216260
C        6.62011540       10.18980000        3.14932130
C        5.75555680        0.43614338        4.02067560
C        6.60306560        1.32250600        4.88400730
C        7.53587150        9.33486480        4.04335540
C        8.43464140       10.17319800        4.83928850
C        7.54937140        0.45183066        2.26285350
C        8.42617310        1.42515190        3.09105080
C        5.84196210        9.28361360        5.77327000
C        6.64193040       10.21692900        6.69131450
C        5.75611660        0.47910063        7.64165980
C        6.67031380        1.20298370        8.45395520
C        7.56781300        9.23005790        7.60260790
C        8.43394280       10.12365000        8.41466290
C        7.54303590        0.44783033        5.71782980
C        8.46597950        1.31710350        6.67856310
C        5.70943650        2.21238990        9.31417120
C        6.65738490        3.06602800       10.17914000
C        5.78529820        3.97397800        0.44169261
C        6.57781220        4.79753890        1.28695190
C        7.48759610        2.21326040        0.44588576
C        8.44821360        3.09379740        1.29830000
C        7.46005620        4.06528200        9.31470500
C        8.35780900        4.95052430       10.15041000
C        5.83887180        2.17420270        2.15566580
C        6.64012660        3.08377140        3.05435360
C        7.49852740        2.17627920        3.93994520
C        8.38570100        3.16417300        4.96457410
C        7.53948980        4.01746040        2.22529000
C        8.36031260        4.94375560        3.09631360
C        5.73974410        2.26581070        5.74923050
C        6.64922770        3.12647790        6.69648630
C        5.71629180        4.00977860        7.56317230
C        6.64601040        4.90689660        8.45650660
C        7.52059070        2.16259020        7.59178020
C        8.42768340        3.12974480        8.39010000
C        7.59140770        3.87203940        5.84514840
C        8.39601250        4.90089620        6.68262450
C        5.77016430        5.77654170        9.40384000
C        6.62911550        6.73792410       10.26512300
C        5.76968230        7.49956840        0.44864903
C        6.67164360        8.48878800        1.33770060
C        7.50421720        5.77760130        0.45486001
C        8.43822480        6.57630620        1.39567180
C        7.53572290        7.57257230        9.30206400
C        8.46471680        8.49079650       10.22231700
C        5.72152370        5.74460030        2.22864380
C        6.60388820        6.67140050        3.08892350
C        5.82080590        7.51633860        3.96866140
C        6.65676070        8.43950180        4.86439780
C        7.58974430        5.83076960        3.93777510
C        8.42792720        6.63508090        4.92162800
C        7.50893510        7.52313620        2.25455200
C        8.42057090        8.50092720        3.13682190
C        5.75718520        5.80237340        5.80386210
C        6.67706400        6.72530340        6.68185940
C        5.83100860        7.59178830        7.56763570
C        6.67364250        8.41872820        8.42725440
C        7.58554680        5.84068420        7.59094910
C        8.44116110        6.72765380        8.45204110
C        7.62881470        7.53526430        5.68449640
C        8.40448050        8.44380900        6.67487080
N        5.64462000        3.89586670        3.89880330
