&CONTROL
calculation = 'scf'
restart_mode = 'from_scratch'
verbosity = 'high'
wf_collect = .true.
pseudo_dir='/home/arpank/pseudopotentials/'
tprnfor = .true.
/
&SYSTEM
ibrav = 0
ecutwfc = 60
tot_charge = -1
nspin = 2
tot_magnetization = 2.0
nbnd = 480
nat = 215
ntyp = 2
input_dft = 'PBE0'
exx_fraction = 0.18
ecutfock = 120
/
&ELECTRONS
conv_thr = 1D-8
diago_full_acc=.true.
mixing_beta = 0.3
/
&IONS
ion_dynamics='bfgs'
ion_positions='default'
/
K_POINTS gamma
ATOMIC_SPECIES
C  12.01099968  C_ONCV_PBE-1.0.upf
N  14.00699997  N_ONCV_PBE-1.0.upf
CELL_PARAMETERS angstrom
    10.65000000      0.00000000      0.00000000
     0.00000000     10.65000000      0.00000000
     0.00000000      0.00000000     10.65000000
ATOMIC_POSITIONS angstrom
C        9.39427560        9.24327750        9.32261540
C       10.15755900       10.24485500       10.17824600
C        9.32896550        0.44279112        0.48747009
C       10.18583400        1.33035830        1.25955100
C        0.36950267        9.28784700        0.50382279
C        1.28614050       10.25012300        1.26507090
C        0.48217352        0.51720506        9.30112700
C        1.30333020        1.39041860       10.21063500
C        9.29552490        9.34917970        2.22758510
C       10.21603000       10.22807000        3.02551370
C        9.29755980        0.47967612        3.92047500
C       10.24030800        1.37297240        4.87173230
C        0.43023191        9.33826550        3.98154420
C        1.31961410       10.18072100        4.91977100
C        0.44701902        0.50181161        2.18049250
C        1.34799620        1.30685510        3.05773810
C        9.27795550        9.28758490        5.79381740
C       10.20621000       10.15923100        6.62723750
C        9.28987430        0.46019247        7.47961280
C       10.22328100        1.33227330        8.35516950
C        0.50979419        9.33535470        7.54957830
C        1.36045840       10.20130100        8.39794630
C        0.38144331        0.46204965        5.75435460
C        1.33953690        1.32353650        6.58912050
C        9.36310800        2.19270880        9.33198580
C       10.24844900        3.09046980       10.22491600
C        9.27149520        3.98999050        0.45749144
C       10.18139500        4.92543140        1.33923860
C        0.49330245        2.26155940        0.38890954
C        1.29144160        3.13293240        1.29315230
C        0.34785431        3.99010770        9.27321700
C        1.27139910        4.84016430       10.19244300
C        9.29331050        2.21072520        2.20781760
C       10.18659900        3.09205510        3.10037100
C        9.31158790        4.01150920        3.98666870
C       10.17622400        4.79761140        4.88596460
C        0.45777449        2.25088870        3.93900520
C        1.32710550        3.12283220        4.88127640
C        0.40694282        3.98076700        2.18382780
C        1.28902310        4.88784170        3.10014480
C        9.26925360        2.21144780        5.81123220
C       10.24651800        3.11659580        6.63633180
C        9.27319700        4.01444350        7.56136100
C       10.20624500        4.82629080        8.44708550
C        0.41384194        2.21504370        7.47822390
C        1.32142320        3.03821000        8.42446030
C        0.44727163        3.95884580        5.74143620
C        1.30055650        4.88371980        6.64484670
C        9.23660240        5.66339830        9.33109160
C       10.17105200        6.63365840       10.31954600
C        9.27035400        7.49510650        0.49172537
C       10.21437800        8.39733840        1.40546570
C        0.35206289        5.72350270        0.48659589
C        1.19933770        6.62020520        1.38129500
C        0.44733564        7.48502740        9.33623420
C        1.33146850        8.44645170       10.18754800
C        9.19895200        5.72710370        2.17585720
C       10.21057500        6.65157310        3.14653270
C        9.31689890        7.56344030        4.03626780
C       10.20430500        8.35522540        4.80802900
C        0.43577112        5.76320740        4.04962110
C        1.39017370        6.66119700        4.91152610
C        0.47320235        7.54379300        2.18005750
C        1.38063220        8.50660990        3.07449210
C        9.27888710        5.79620390        5.75667010
C       10.23894600        6.63760040        6.67365060
C        9.38326520        7.57762870        7.51542120
C       10.18754600        8.41545500        8.49370950
C        0.37276187        5.75471230        7.54061190
C        1.34224480        6.66379980        8.44453660
C        0.43661276        7.56196350        5.71236690
C        1.40523780        8.44001820        6.67512580
C        2.24393250        9.33477070        9.33306710
C        3.06858250       10.22187900       10.19744800
C        2.15408720        0.41829649        0.37929804
C        3.01135380        1.37637390        1.29807390
C        4.02519300        9.31328760        0.45208382
C        4.89051440       10.21132200        1.39577760
C        4.01220340        0.43907111        9.26730600
C        4.86689010        1.25477940       10.25031800
C        2.18873840        9.39369050        2.28305340
C        3.16072230       10.16230600        3.13904660
C        2.25744960        0.40574192        3.95853480
C        3.12872100        1.26501930        4.83924920
C        4.02655300        9.29608620        4.00578060
C        4.90595700       10.21574100        4.89912560
C        3.99860140        0.41624552        2.16609760
C        4.85275150        1.32436590        3.02335740
C        2.27804940        9.33545240        5.78151390
C        3.15436950       10.22902500        6.65273430
C        2.29229450        0.37933095        7.55696910
C        3.15333350        1.42566810        8.40382160
C        4.02982560        9.30662280        7.52130010
C        4.89954050       10.25391700        8.43862590
C        4.07916860        0.43151075        5.71636610
C        4.93240930        1.33210460        6.62233250
C        2.23663300        2.20574850        9.32068310
C        3.13436590        3.11485990       10.16964600
C        2.20500040        3.99472850        0.48292320
C        3.13689620        4.85156110        1.31599830
C        3.93874150        2.17081340        0.40779539
C        4.81854620        3.11766740        1.35890950
C        3.97323720        4.04974610        9.29661510
C        4.84050160        4.86814510       10.23050500
C        2.18937630        2.21549850        2.20832190
C        3.12844310        3.06111840        3.14610920
C        2.22042450        3.98030310        3.97698370
C        3.18104700        4.80365710        4.90586560
C        4.03560860        2.18749530        4.01181320
C        4.90980220        3.15048100        4.80852640
C        3.99813440        4.01061110        2.21477540
C        4.88376500        4.87654120        3.07547050
C        2.29722730        2.20284690        5.71127620
C        3.12214720        3.11021480        6.60020820
C        2.19999210        4.06860170        7.52546460
C        3.15820300        4.88312220        8.40126340
C        3.95898110        2.32096310        7.60923100
C        4.93664060        3.16345720        8.48936270
C        4.12730890        3.97614520        5.84007220
C        4.89729420        4.89103880        6.67713770
C        2.24333490        5.80851420        9.29756450
C        3.07736120        6.72611990       10.25596500
C        2.16260020        7.61002150        0.40930710
C        3.06895090        8.40421010        1.33505680
C        4.05565570        5.76844230        0.47461932
C        4.91177670        6.61756220        1.32222500
C        3.88388160        7.56850100        9.33025720
C        4.85269640        8.49478950       10.21928300
C        2.19796080        5.77889470        2.21139120
C        3.12490340        6.63105460        3.16211790
C        2.19676780        7.56307500        3.97002310
C        3.04006580        8.43046810        4.96389400
C        4.02387520        5.73279590        3.89529600
C        4.92216230        6.61208110        4.93491060
C        3.98906210        7.46682760        2.18828170
C        4.90551640        8.40131890        3.15404550
C        2.24541090        5.71628940        5.75267530
C        3.08813200        6.56863290        6.66812580
C        2.20855260        7.49394850        7.48796310
C        3.07769970        8.47470750        8.41458020
C        4.01668660        5.76534320        7.52859980
C        4.87370210        6.72618540        8.46002250
C        4.01647360        7.56617180        5.82860950
C        4.89916690        8.40014740        6.67104360
C        5.73906070        9.31970670        9.39639650
C        6.73314250       10.17733200       10.24623400
C        5.85396770        0.48811267        0.41865332
C        6.66853140        1.33038850        1.28273780
C        7.56836240        9.33671890        0.45243846
C        8.41851730       10.25558500        1.31822880
C        7.49810330        0.48020039        9.25372610
C        8.45083020        1.33116810       10.15770300
C        5.77078700        9.35714100        2.28923520
C        6.58735730       10.28570800        3.10549020
C        5.71637430        0.50089721        3.96201600
C        6.60058000        1.36054670        4.94338900
C        7.54339690        9.32509770        3.95899330
C        8.41812140       10.22106800        4.85167730
C        7.50600390        0.42092663        2.13244160
C        8.45090830        1.29716440        3.07060110
C        5.82708580        9.34221430        5.79468640
C        6.65870930       10.23572500        6.62959960
C        5.73084410        0.48729366        7.52541060
C        6.65481540        1.40355360        8.43375850
C        7.59053140        9.29146810        7.50861100
C        8.48240660       10.21161500        8.44058840
C        7.46375620        0.44664118        5.80404620
C        8.38979990        1.28399900        6.73952870
C        5.76842900        2.27712730        9.39158210
C        6.72785320        3.07530850       10.29467100
C        5.80913830        4.04050610        0.44802615
C        6.62044280        4.89594850        1.34323020
C        7.58302170        2.23957780        0.45972991
C        8.41329640        3.01598280        1.34707700
C        7.47430510        4.00961450        9.31205340
C        8.39345570        4.87782680       10.27944500
C        5.74585130        2.16824200        2.14966430
C        6.57097650        3.08196740        3.12290940
C        7.57423530        2.22492190        4.00926430
C        8.35279990        3.03155270        4.89569050
C        7.52808590        3.97414880        2.31298850
C        8.44805250        4.82489180        3.05452010
C        5.77412670        2.33451330        5.70051820
C        6.69955720        3.24618100        6.61928890
C        5.82144410        4.05607010        7.53561120
C        6.62014020        4.85845160        8.45979530
C        7.53188850        2.24699360        7.53151560
C        8.41108300        3.13134650        8.46238580
C        7.62412540        4.00338050        5.83130540
C        8.45126220        4.94016660        6.59332850
C        5.72943600        5.73253240        9.28439100
C        6.65674940        6.63230110       10.22806200
C        5.77990580        7.54023590        0.45718650
C        6.64108990        8.41129060        1.33995770
C        7.59663240        5.72218540        0.47514200
C        8.42051320        6.61617600        1.38047520
C        7.55462590        7.54899230        9.33612410
C        8.48074870        8.37540650       10.26622400
C        5.74801180        5.80287260        2.21469980
C        6.70851630        6.65090890        3.13310610
C        5.75113400        7.53794020        4.03472690
C        6.66566300        8.45286310        4.91861970
C        7.63065450        5.89171800        3.92215080
C        8.41875770        6.66974350        4.87479700
C        7.54034790        7.58489130        2.20636890
C        8.45979060        8.44651960        3.14926310
C        5.74771650        5.75262400        5.86227000
C        6.66942400        6.67016190        6.70850610
C        5.82728970        7.48490810        7.57672020
C        6.69062360        8.43887010        8.45050070
C        7.63365290        5.71189080        7.60158790
C        8.45743750        6.56201760        8.47871300
C        7.57506890        7.52075740        5.78982410
C        8.44415380        8.40808870        6.64724820
N        5.66552480        3.91000210        3.88612630
