&CONTROL
calculation = 'scf'
restart_mode = 'from_scratch'
verbosity = 'high'
wf_collect = .true.
pseudo_dir='/home/arpank/pseudopotentials/'
tprnfor = .true.
/
&SYSTEM
ibrav = 0
ecutwfc = 60
tot_charge = -1
nspin = 2
tot_magnetization = 2.0
nbnd = 480
nat = 215
ntyp = 2
input_dft = 'PBE0'
exx_fraction = 0.18
ecutfock = 120
/
&ELECTRONS
conv_thr = 1D-8
diago_full_acc=.true.
mixing_beta = 0.3
/
&IONS
ion_dynamics='bfgs'
ion_positions='default'
/
K_POINTS gamma
ATOMIC_SPECIES
C  12.01099968  C_ONCV_PBE-1.0.upf
N  14.00699997  N_ONCV_PBE-1.0.upf
CELL_PARAMETERS angstrom
    10.65000000      0.00000000      0.00000000
     0.00000000     10.65000000      0.00000000
     0.00000000      0.00000000     10.65000000
ATOMIC_POSITIONS angstrom
C        9.31082420        9.25049130        9.29506000
C       10.19993000       10.20791000       10.20905900
C        9.29826970        0.45446690        0.44119329
C       10.17231200        1.34191260        1.39257580
C        0.44240899        9.34629630        0.42164189
C        1.28639080       10.18845600        1.36592140
C        0.39511267        0.46358507        9.32572690
C        1.32110600        1.36502750       10.23909000
C        9.40275340        9.31474510        2.20607580
C       10.24173700       10.22085400        3.14759980
C        9.30573630        0.45130245        4.02974470
C       10.19654400        1.35497460        4.84693140
C        0.50489814        9.37182700        3.92983980
C        1.30369010       10.19053800        4.81868450
C        0.44015656        0.39484835        2.21026740
C        1.37188830        1.28662940        3.09045620
C        9.32525650        9.31898030        5.72932690
C       10.28431600       10.19073300        6.56940390
C        9.28605060        0.41453744        7.52938990
C       10.16170400        1.37513060        8.48797490
C        0.49301845        9.27636840        7.51445610
C        1.30643110       10.20322200        8.44006990
C        0.39161337        0.46725665        5.74535570
C        1.30832210        1.40592120        6.69249330
C        9.35812520        2.17068830        9.26855160
C       10.20491400        3.11805870       10.16158300
C        9.35409290        3.98974010        0.37613018
C       10.25150900        4.83800100        1.39429400
C        0.45131072        2.26675350        0.41726977
C        1.27211190        3.12441860        1.35790020
C        0.41268076        4.03718160        9.35160200
C        1.34226170        4.94940910       10.21080400
C        9.32171300        2.29678750        2.21180890
C       10.22465100        3.15326280        3.18209180
C        9.31990730        4.01699220        4.05524100
C       10.19179300        4.92056340        4.91294720
C        0.44899907        2.19728740        3.95129790
C        1.37899340        3.12119030        4.91401660
C        0.47921207        4.07225050        2.28999740
C        1.32159970        4.93009130        3.15394290
C        9.27714420        2.17300770        5.71552910
C       10.19738400        3.01778310        6.65053010
C        9.31769630        3.98571960        7.49492610
C       10.20938200        4.86600420        8.45081360
C        0.43468702        2.23898340        7.59389240
C        1.27650520        3.15223160        8.46280050
C        0.41199773        4.00413240        5.79641360
C        1.40601750        4.93961130        6.73186850
C        9.34165190        5.78747660        9.26366360
C       10.24625400        6.60711150       10.18592600
C        9.35961470        7.50845150        0.39544253
C       10.23277000        8.36817850        1.27596090
C        0.41290120        5.69654480        0.42469631
C        1.30594990        6.62656900        1.35249820
C        0.45930961        7.53891920        9.32999740
C        1.34712490        8.43149430       10.15133300
C        9.29414270        5.68661530        2.21617310
C       10.26450900        6.61153520        3.14849170
C        9.29331380        7.58515220        3.94509200
C       10.24297800        8.38917880        4.90175740
C        0.44734327        5.76464920        3.98876110
C        1.29614670        6.70524500        4.85059190
C        0.48021301        7.53199600        2.14983010
C        1.35393800        8.40135030        3.12646760
C        9.23871530        5.78886030        5.82350120
C       10.26848900        6.70145570        6.63994830
C        9.33452550        7.50409890        7.56279980
C       10.23858100        8.37717740        8.38615990
C        0.41525918        5.74051770        7.52196050
C        1.40891390        6.61362550        8.45959100
C        0.36862339        7.55311410        5.74064700
C        1.31770150        8.43298220        6.58952820
C        2.20384320        9.29617770        9.34571370
C        3.12768110       10.20659700       10.20346600
C        2.13609890        0.50652984        0.46338433
C        3.06378690        1.33827000        1.22204000
C        4.01637820        9.32863500        0.36525568
C        4.89247990       10.24901600        1.40558450
C        3.98033040        0.45494545        9.37598400
C        4.90723380        1.32781640       10.16492900
C        2.24950450        9.27074180        2.25355510
C        3.12644100       10.17709900        3.16218690
C        2.23476100        0.50728992        3.96972370
C        3.04397240        1.42204160        4.91348670
C        3.98194830        9.27954140        3.95296160
C        4.82275980       10.16775200        4.84324010
C        4.01133060        0.37610803        2.21427700
C        4.88879230        1.34834960        3.21090520
C        2.11678540        9.33530430        5.71590070
C        3.08703100       10.18420300        6.65082970
C        2.13683510        0.37961144        7.56371460
C        3.03058160        1.39492260        8.39528250
C        3.99620690        9.28315350        7.51460680
C        4.86416130       10.16924600        8.37095690
C        3.94010840        0.43849315        5.82641650
C        4.95460210        1.31736880        6.72441910
C        2.16285890        2.24070250        9.26967490
C        3.05359230        3.14177670       10.16036500
C        2.16834300        3.97321760        0.41685755
C        3.16429400        4.78472220        1.35502950
C        3.97817730        2.23203930        0.43021884
C        4.87146480        3.05801000        1.38655370
C        3.99861990        4.07508910        9.33294460
C        4.90835350        4.89122720       10.27293400
C        2.23772440        2.16392070        2.17709540
C        3.05611740        3.11922190        3.06487530
C        2.21653860        4.06823720        3.99534740
C        3.14474040        4.95610740        4.92309820
C        3.92603520        2.23896700        4.05479530
C        4.85377030        3.08469700        4.87272120
C        4.01936350        4.01964950        2.25593440
C        4.92552170        4.86256400        3.06066730
C        2.21969750        2.24383210        5.79224500
C        3.16485950        3.10840100        6.68859610
C        2.22777970        4.05603710        7.54373140
C        3.17712820        4.85587660        8.46250420
C        4.05227360        2.29039860        7.52072400
C        4.90597400        3.15126050        8.46687050
C        4.02454810        3.97557340        5.76971790
C        4.90594830        4.85717900        6.66203460
C        2.28746390        5.86740290        9.27752940
C        3.14663530        6.67545900       10.22738600
C        2.18344910        7.48880860        0.43873057
C        3.05831050        8.39117880        1.33126030
C        4.02611180        5.73401920        0.41963438
C        4.85244640        6.65548980        1.33071320
C        4.03865490        7.49581130        9.33879820
C        4.89465290        8.44441760       10.23768800
C        2.15266120        5.76187160        2.22610480
C        3.05804520        6.63377990        3.10437440
C        2.23061240        7.44436910        3.91284530
C        3.08341880        8.39282260        4.85720470
C        4.04806490        5.74128540        3.97201260
C        4.86912080        6.59467770        4.87573950
C        3.93887450        7.47147220        2.22177130
C        4.82462100        8.39041250        3.14125090
C        2.27983630        5.82808600        5.77067550
C        3.12771870        6.71511530        6.63313270
C        2.21230970        7.53479390        7.54507830
C        3.15031610        8.38239260        8.48649600
C        4.01638120        5.77894570        7.55425130
C        4.94982950        6.66506700        8.44603880
C        4.04810940        7.57607150        5.77697660
C        4.85409130        8.46852410        6.60779160
C        5.81878530        9.27983310        9.28061720
C        6.64757800       10.21292200       10.20101100
C        5.73551680        0.42449745        0.50583648
C        6.67462300        1.31430820        1.29113630
C        7.57988550        9.35304420        0.43164950
C        8.45299120       10.12815000        1.30215950
C        7.55932310        0.43730798        9.30430890
C        8.37756020        1.37593630       10.20653700
C        5.81260950        9.33063360        2.22591570
C        6.66790880       10.23380900        3.11572640
C        5.73916190        0.44807348        4.04669780
C        6.62763050        1.30142290        4.92379210
C        7.59645890        9.31514890        4.05974320
C        8.44161400       10.24456800        4.88594530
C        7.47686230        0.46133877        2.26540100
C        8.39458240        1.38607430        3.12343920
C        5.75701850        9.35115340        5.81279110
C        6.64719550       10.21958900        6.58427210
C        5.78095930        0.45815669        7.52874800
C        6.69459020        1.32120760        8.45521410
C        7.50794160        9.25110240        7.45593130
C        8.38045710       10.15047300        8.43670910
C        7.57803640        0.43996043        5.77930270
C        8.44365810        1.36214810        6.66905650
C        5.78830320        2.21701080        9.33022530
C        6.62618880        3.09427890       10.25940100
C        5.79801270        3.95910630        0.50265554
C        6.68151010        4.86564430        1.36965170
C        7.46319460        2.20432100        0.46593952
C        8.42779630        3.14096170        1.34478470
C        7.57197940        3.94539670        9.33606640
C        8.43952980        4.89936310       10.21897400
C        5.84852290        2.13029410        2.18905640
C        6.66726920        3.14379640        3.17670100
C        7.49680500        2.28343150        4.01214870
C        8.39103940        3.12124430        4.97088480
C        7.54645190        4.03371090        2.21774680
C        8.40291630        4.94951870        3.13279680
C        5.77906250        2.23227050        5.82631430
C        6.56474230        3.13143370        6.70282080
C        5.77006010        4.04117900        7.59194850
C        6.73584960        4.86134720        8.41731830
C        7.60375760        2.15102560        7.56711790
C        8.47579170        3.13277480        8.43015390
C        7.55952520        3.95939490        5.84518990
C        8.39699570        4.85014760        6.64029360
C        5.80748880        5.73509440        9.39290010
C        6.67106600        6.68839260       10.13782900
C        5.78883710        7.53032570        0.35467557
C        6.73013570        8.44530750        1.27205940
C        7.49788300        5.74320410        0.49089607
C        8.45823780        6.58834740        1.37288380
C        7.57178570        7.51455150        9.30657110
C        8.40942420        8.45183120       10.15792400
C        5.77111200        5.84266440        2.18071500
C        6.62706890        6.61282000        3.12172620
C        5.69602180        7.56302230        3.96690650
C        6.63932150        8.44195890        4.84127350
C        7.64879220        5.80422380        4.00704590
C        8.42711160        6.75017070        4.81989880
C        7.54938370        7.52933900        2.16377890
C        8.46926070        8.46834450        3.02273920
C        5.75766400        5.84296090        5.80476720
C        6.66933010        6.64656380        6.67833810
C        5.72730830        7.55774150        7.59209950
C        6.68930800        8.39499810        8.43449780
C        7.51764400        5.84336860        7.45310630
C        8.38573340        6.65171460        8.39305180
C        7.44753520        7.49417840        5.77816860
C        8.44639390        8.42577020        6.56168460
N        5.62664690        3.87850090        3.86575800
