&CONTROL
calculation = 'scf'
restart_mode = 'from_scratch'
verbosity = 'high'
wf_collect = .true.
pseudo_dir='/home/arpank/pseudopotentials/'
tprnfor = .true.
/
&SYSTEM
ibrav = 0
ecutwfc = 60
tot_charge = -1
nspin = 2
tot_magnetization = 2.0
nbnd = 480
nat = 215
ntyp = 2
input_dft = 'PBE0'
exx_fraction = 0.18
ecutfock = 120
/
&ELECTRONS
conv_thr = 1D-8
diago_full_acc=.true.
mixing_beta = 0.3
/
&IONS
ion_dynamics='bfgs'
ion_positions='default'
/
K_POINTS gamma
ATOMIC_SPECIES
C  12.01099968  C_ONCV_PBE-1.0.upf
N  14.00699997  N_ONCV_PBE-1.0.upf
CELL_PARAMETERS angstrom
    10.65000000      0.00000000      0.00000000
     0.00000000     10.65000000      0.00000000
     0.00000000      0.00000000     10.65000000
ATOMIC_POSITIONS angstrom
C        9.40310300        9.34660790        9.36161190
C       10.21752500       10.18349600       10.17939200
C        9.27598540        0.43742878        0.38098800
C       10.15767100        1.31178140        1.27904930
C        0.47782354        9.36111950        0.40566581
C        1.41682680       10.13813200        1.33387540
C        0.45811874        0.45772068        9.34060280
C        1.32559840        1.34573450       10.22131700
C        9.29899600        9.36079800        2.18699550
C       10.19087500       10.22807400        3.10497390
C        9.34623920        0.45089027        3.93354070
C       10.16986200        1.29406650        4.93639740
C        0.43672574        9.30339700        4.01170800
C        1.36637430       10.19921500        4.84736420
C        0.41841739        0.44965400        2.16992370
C        1.31610890        1.29945320        3.08196870
C        9.37471810        9.31614430        5.74521380
C       10.19239900       10.21053400        6.66085540
C        9.35403460        0.51323112        7.50675790
C       10.28058800        1.41341960        8.43764160
C        0.40831909        9.30271200        7.55214930
C        1.33509730       10.22189800        8.40520170
C        0.43549270        0.39776068        5.72974370
C        1.38358230        1.43118790        6.59883380
C        9.30817590        2.21864010        9.32717710
C       10.22196600        3.11001760       10.08596200
C        9.25269390        3.98144400        0.42839317
C       10.19477800        4.90287990        1.34257960
C        0.48050333        2.27100500        0.42463673
C        1.33961930        3.14702990        1.33060720
C        0.47867496        4.00684950        9.26672200
C        1.34800220        4.87823140       10.19443400
C        9.32935510        2.26233230        2.13930900
C       10.16916400        3.10557070        3.05199670
C        9.23109560        4.02780620        3.94592240
C       10.15990700        4.91639750        4.86173420
C        0.37984652        2.21811370        3.93976120
C        1.33570700        3.06725410        4.82692800
C        0.39558351        4.01355790        2.25311490
C        1.34718410        4.82870070        3.09059160
C        9.26385630        2.19407960        5.76273870
C       10.22902800        3.13395660        6.65919630
C        9.30791360        3.97154010        7.61615120
C       10.24179200        4.95016750        8.45693930
C        0.45082407        2.22805940        7.52083790
C        1.35014920        3.14217630        8.42172330
C        0.43559337        3.96918770        5.72130910
C        1.31330780        4.87140970        6.63266760
C        9.30707630        5.80795880        9.30908800
C       10.20527500        6.70674890       10.23396300
C        9.26358940        7.55184440        0.45476344
C       10.12698100        8.43894530        1.33019450
C        0.41113896        5.76147280        0.45405405
C        1.32048840        6.59847770        1.30810610
C        0.44050600        7.57730410        9.33816560
C        1.38066450        8.43775260       10.15376500
C        9.33885700        5.79236780        2.16878850
C       10.17929000        6.70922250        3.13657320
C        9.34837910        7.55024350        4.06503250
C       10.21808900        8.43738060        4.89349820
C        0.46915927        5.73039960        3.95354090
C        1.27273550        6.63165390        4.90539460
C        0.47915835        7.48970680        2.22175400
C        1.32844260        8.44018660        3.08792670
C        9.31612090        5.77807500        5.77018980
C       10.17159900        6.67118130        6.66726440
C        9.33132170        7.67016780        7.54575450
C       10.21876900        8.43439360        8.42906780
C        0.47972800        5.80871050        7.53421680
C        1.28339590        6.73640510        8.44242300
C        0.37251002        7.54072220        5.74036150
C        1.34842520        8.45853410        6.63719860
C        2.22545280        9.36894500        9.31705990
C        3.16524480       10.22642500       10.17688800
C        2.39444240        0.42367457        0.46274478
C        3.07134570        1.36193410        1.34463960
C        4.05788350        9.33292980        0.48453270
C        4.87773820       10.19982400        1.31390170
C        4.01908920        0.46780837        9.33290110
C        4.96335950        1.23793220       10.18807600
C        2.30872570        9.26219390        2.22725750
C        3.18741330       10.14585600        3.08938370
C        2.15278190        0.44807110        3.98883770
C        3.08833000        1.30557620        4.78879470
C        3.99332210        9.30934590        4.10294330
C        4.83495920       10.23465300        4.93996510
C        4.02127800        0.50901640        2.14994360
C        4.94646870        1.27510290        3.11388030
C        2.20683680        9.32051570        5.76684240
C        3.15521230       10.18596600        6.69400500
C        2.31112180        0.47799573        7.53225130
C        3.11819770        1.38272960        8.43273140
C        3.96621330        9.28787780        7.57072160
C        4.81685510       10.21027200        8.38405580
C        4.02470520        0.43362075        5.80086170
C        4.84373070        1.34137110        6.73344920
C        2.21534980        2.21548100        9.32925830
C        3.13965350        3.05256220       10.19418000
C        2.24897670        3.98166640        0.45233814
C        3.08858280        4.85733100        1.30444660
C        4.00855730        2.16349950        0.47123871
C        4.84153360        3.05422690        1.44097850
C        3.97255150        3.97649590        9.36327510
C        4.89370910        4.85647290       10.22532500
C        2.25746350        2.25828600        2.19876150
C        3.06563200        3.11376790        3.09183950
C        2.18258610        3.98276590        4.05039650
C        3.14828420        4.83551540        4.89678380
C        4.01585540        2.20971120        3.98498260
C        4.88708830        3.16690180        4.79301670
C        3.98357850        4.02301780        2.25255220
C        4.90272920        4.86214170        3.15933340
C        2.21804760        2.19432970        5.72463500
C        3.11745480        3.12211560        6.60206200
C        2.29269170        3.98123340        7.54831650
C        3.10010200        4.85748560        8.49135680
C        3.91705290        2.20427120        7.55523530
C        4.89065060        3.02130480        8.41429520
C        4.05236860        3.94523330        5.72465360
C        4.90439450        4.89439860        6.60982140
C        2.25560250        5.76589770        9.22341240
C        3.12349890        6.58392520       10.09116300
C        2.21148940        7.52085990        0.45739130
C        3.18686380        8.40933660        1.33684360
C        3.99894580        5.82260620        0.37733493
C        4.84523260        6.62466620        1.34122990
C        4.02766920        7.53019490        9.35834060
C        4.90409150        8.39142100       10.23812500
C        2.25414390        5.78446840        2.18407660
C        3.12992270        6.65794180        3.08553160
C        2.18297020        7.58811240        4.04054500
C        3.03517100        8.50051680        4.90438550
C        4.08243700        5.77509440        4.03386300
C        4.90771370        6.67031720        4.92687250
C        3.98659680        7.56481590        2.22734310
C        4.82653320        8.40903840        3.20094150
C        2.21002930        5.75826020        5.83221100
C        3.13866430        6.58715180        6.61267860
C        2.23473050        7.51056910        7.59554350
C        3.05475360        8.37056970        8.44706980
C        3.99761560        5.73701080        7.51325980
C        4.86722620        6.71046760        8.40152190
C        3.98435250        7.55562540        5.72816210
C        4.93572010        8.48139630        6.64877320
C        5.73710060        9.33479450        9.28355180
C        6.67904670       10.21697600       10.14587600
C        5.75013950        0.46583350        0.43717893
C        6.59731920        1.32123740        1.31302950
C        7.55420990        9.30085460        0.44605742
C        8.49962430       10.19670400        1.37957430
C        7.57440780        0.40863360        9.30964300
C        8.39562620        1.30994790       10.18532000
C        5.78894770        9.32332880        2.32137240
C        6.64810890       10.15843000        3.16244690
C        5.70165090        0.41211255        4.00702050
C        6.62416970        1.36636540        4.94772840
C        7.62051470        9.24148600        4.06669580
C        8.41078780       10.25192500        4.89643320
C        7.50093690        0.44497677        2.29682930
C        8.41362430        1.32107740        3.10242820
C        5.81059320        9.29779090        5.80067690
C        6.67671290       10.17777900        6.72628280
C        5.76232950        0.43738664        7.56346360
C        6.67433380        1.33347080        8.46010090
C        7.62865790        9.38140960        7.52786430
C        8.41126740       10.25886200        8.48072480
C        7.49822100        0.53056419        5.75456540
C        8.39255310        1.38903960        6.69444990
C        5.70802930        2.19852690        9.24470800
C        6.66726220        3.15622710       10.25035200
C        5.74892440        3.86395020        0.38296425
C        6.58727830        4.86541740        1.31910990
C        7.52233550        2.19531240        0.46851993
C        8.40301710        3.09491180        1.22848220
C        7.51765150        3.97915390        9.37026370
C        8.41025100        4.90981960       10.20677500
C        5.78887060        2.14045750        2.28910870
C        6.67082960        3.07837590        3.11042290
C        7.55733470        2.24535590        4.01605580
C        8.37154080        3.06171640        4.88562780
C        7.50477630        3.98893070        2.19198750
C        8.38048130        4.88918040        3.07294380
C        5.70529490        2.22685170        5.75655930
C        6.63985370        3.05728380        6.65351200
C        5.76679360        3.93195470        7.48808010
C        6.65527640        4.91782300        8.39087610
C        7.54443260        2.28766560        7.60010840
C        8.38178790        3.10266220        8.45885730
C        7.63254580        3.98065850        5.83321920
C        8.44482430        4.94980480        6.69948080
C        5.77545230        5.73990120        9.27866400
C        6.64329720        6.59933490       10.17146200
C        5.77708890        7.45034750        0.53391917
C        6.61956390        8.43879890        1.35655930
C        7.47964340        5.74881340        0.51445234
C        8.35947720        6.59654900        1.39265410
C        7.47861390        7.58419020        9.31267550
C        8.47005960        8.42426980       10.18910700
C        5.79510140        5.77861450        2.25371250
C        6.65052240        6.64150490        3.08137900
C        5.70524600        7.49842690        3.97983230
C        6.63404770        8.47439420        4.83116460
C        7.59037610        5.80630110        3.97812040
C        8.40394270        6.67746360        4.86737300
C        7.53665120        7.52458780        2.35631570
C        8.50184270        8.47167400        3.10870280
C        5.70245970        5.77742260        5.83705570
C        6.65751330        6.68942500        6.65815300
C        5.81478340        7.56846130        7.64261180
C        6.59937220        8.48918120        8.44109130
C        7.55240010        5.81952770        7.49472290
C        8.41685550        6.66835970        8.46685540
C        7.54402900        7.56228970        5.69615280
C        8.40226430        8.46592910        6.66041050
N        5.76383270        3.79655240        3.87586400
