&CONTROL
calculation = 'scf'
restart_mode = 'from_scratch'
verbosity = 'high'
wf_collect = .true.
pseudo_dir='/home/arpank/pseudopotentials/'
tprnfor = .true.
/
&SYSTEM
ibrav = 0
ecutwfc = 60
tot_charge = -1
nspin = 2
tot_magnetization = 2.0
nbnd = 480
nat = 215
ntyp = 2
input_dft = 'PBE0'
exx_fraction = 0.18
ecutfock = 120
/
&ELECTRONS
conv_thr = 1D-8
diago_full_acc=.true.
mixing_beta = 0.3
/
&IONS
ion_dynamics='bfgs'
ion_positions='default'
/
K_POINTS gamma
ATOMIC_SPECIES
C  12.01099968  C_ONCV_PBE-1.0.upf
N  14.00699997  N_ONCV_PBE-1.0.upf
CELL_PARAMETERS angstrom
    10.65000000      0.00000000      0.00000000
     0.00000000     10.65000000      0.00000000
     0.00000000      0.00000000     10.65000000
ATOMIC_POSITIONS angstrom
C        9.33952180        9.29048810        9.30477910
C       10.22296800       10.21316500       10.18715700
C        9.26356250        0.34675654        0.50320810
C       10.14377600        1.34035130        1.34714070
C        0.46320301        9.26462780        0.46921642
C        1.34988360       10.15244900        1.32197120
C        0.47434543        0.39132647        9.34462880
C        1.36406970        1.30421060       10.23310800
C        9.33316290        9.32998320        2.25418820
C       10.19207000       10.19000900        3.09715950
C        9.35874610        0.49093002        4.08819480
C       10.20293300        1.34840320        4.84309090
C        0.35393239        9.32679570        3.98139750
C        1.38602280       10.23149200        4.85167600
C        0.43277143        0.44507052        2.25055760
C        1.30489050        1.38681310        3.14134960
C        9.26778610        9.36199350        5.73860730
C       10.17359000       10.21995700        6.70397630
C        9.38207410        0.45431936        7.51417160
C       10.20118700        1.32515020        8.39745360
C        0.41452344        9.39007210        7.53672940
C        1.35569720       10.27701100        8.52938030
C        0.45836278        0.42082374        5.73874610
C        1.27993550        1.33741200        6.59414540
C        9.37141320        2.20851440        9.32762380
C       10.24664600        3.07408130       10.21297100
C        9.30729710        3.98287600        0.43211841
C       10.14440000        4.84939220        1.33858780
C        0.49394095        2.21225980        0.48049585
C        1.37348140        3.06711450        1.30477140
C        0.44847451        3.99913460        9.27853050
C        1.37871150        4.88247570       10.21517000
C        9.27366790        2.21360950        2.20949800
C       10.14580400        3.09609830        3.04407870
C        9.32063920        3.99556400        4.01089300
C       10.20949900        4.92625700        4.88320430
C        0.39761530        2.24939470        4.01046700
C        1.31333060        3.16610540        4.87641020
C        0.41192574        3.95909420        2.16151650
C        1.32346800        4.89172230        3.07050660
C        9.33837760        2.26095480        5.70273360
C       10.18903400        3.03495010        6.61022970
C        9.37108830        4.01941130        7.54438340
C       10.22481700        4.88979300        8.48550840
C        0.39388735        2.18949890        7.55198220
C        1.31392150        3.10645580        8.47764310
C        0.49921921        4.00686780        5.73755010
C        1.34214980        4.91056050        6.62282280
C        9.44112630        5.73118190        9.28991110
C       10.24693200        6.61566190       10.24811400
C        9.25875800        7.53920490        0.40764111
C       10.12510500        8.38601570        1.35076210
C        0.43268871        5.71146100        0.45028936
C        1.26649140        6.64104680        1.29983660
C        0.47496106        7.53346680        9.38938350
C        1.38071310        8.45217370       10.20932600
C        9.32482290        5.75917170        2.19434000
C       10.17020300        6.71121760        3.09055530
C        9.25675620        7.58865670        4.02340770
C       10.23398600        8.43482140        4.84785930
C        0.41679941        5.77565910        4.00344440
C        1.33934280        6.67369800        4.80520790
C        0.35989627        7.55206660        2.21906800
C        1.31162120        8.47844980        3.14094420
C        9.29952800        5.76605730        5.81524850
C       10.23692600        6.62577920        6.71016070
C        9.40979210        7.55920920        7.56846130
C       10.19731700        8.41859910        8.52553630
C        0.48775868        5.81498120        7.61369100
C        1.39187490        6.70242990        8.57607570
C        0.42135233        7.47854810        5.74132060
C        1.30339660        8.37483110        6.64063390
C        2.24857390        9.31963410        9.27045090
C        3.16154490       10.21688200       10.20932000
C        2.21791530        0.32010181        0.49301311
C        3.14071920        1.28579050        1.38074580
C        4.03343740        9.26185980        0.46213848
C        4.90182300       10.20595500        1.31410620
C        3.99005150        0.48249211        9.27599240
C        4.89821200        1.24331820       10.20556500
C        2.26227250        9.30741330        2.20620280
C        3.12634640       10.24588100        3.18715860
C        2.23390630        0.48996658        3.98445740
C        3.14684370        1.37611360        4.92462230
C        3.96496450        9.39162830        3.97722380
C        4.79547740       10.17258200        4.90236610
C        4.00539110        0.42395832        2.21304050
C        4.86944160        1.31975680        3.04563770
C        2.14528320        9.30392920        5.75343640
C        3.01631590       10.16341200        6.68808500
C        2.17107510        0.45515522        7.50848040
C        3.15193930        1.30097960        8.40739900
C        4.05464110        9.32091920        7.51895240
C        4.87837840       10.32760900        8.47010710
C        3.98509920        0.43041245        5.71153350
C        4.89758900        1.32201200        6.59227800
C        2.19666080        2.13178430        9.31293850
C        3.08580290        3.08997150       10.17841500
C        2.21371930        4.00328140        0.41774990
C        3.02251270        4.92396930        1.31735710
C        4.06049750        2.25531960        0.43581154
C        4.89543210        3.09930010        1.39238510
C        3.99002000        4.04303920        9.32685410
C        4.88033680        4.86668430       10.24080000
C        2.16814740        2.16853700        2.27669380
C        3.07431350        3.15799810        3.15888980
C        2.21245010        4.03683160        4.01955340
C        3.09055250        4.88266530        4.98822560
C        4.01935400        2.23263040        3.96545110
C        4.87134260        3.06347780        4.84210440
C        3.94503610        3.99920690        2.27093230
C        4.87387120        4.88332770        3.11089080
C        2.19172370        2.23851190        5.73039760
C        3.12783680        3.02285080        6.60123280
C        2.27538560        3.97867000        7.57895710
C        3.18803700        4.93140790        8.41938510
C        4.04654550        2.19555330        7.60235440
C        4.90337050        3.08966200        8.48594170
C        4.06363560        3.98935530        5.73423490
C        4.89806450        4.89499070        6.72280130
C        2.21171270        5.77589550        9.32714030
C        3.08347440        6.64437730       10.21675100
C        2.22124490        7.55839940        0.50785096
C        3.12751710        8.43830840        1.27827290
C        3.99463110        5.76690910        0.39040556
C        4.88937790        6.60103160        1.29478710
C        3.99951800        7.55061460        9.31993120
C        4.85975880        8.41465440       10.23686900
C        2.25598310        5.79707120        2.23013540
C        3.15504720        6.68085400        3.11402610
C        2.26137290        7.58337080        3.98126660
C        3.16535880        8.51845680        4.88925980
C        4.05255350        5.74236090        4.07366230
C        4.85413620        6.67402480        4.97350750
C        4.05576750        7.52794120        2.22975180
C        4.90120520        8.39174160        3.10229810
C        2.20777920        5.82353810        5.80815840
C        3.12125700        6.68794950        6.66977660
C        2.27126700        7.58365530        7.57900820
C        3.10902380        8.41379930        8.43807890
C        3.98036510        5.77526910        7.45428590
C        4.88500540        6.62124290        8.41056350
C        4.03020970        7.55554820        5.74717190
C        4.88061750        8.52678940        6.59201990
C        5.81063790        9.32703440        9.35919170
C        6.64044110       10.19225600       10.17828100
C        5.77240180        0.41632876        0.49526081
C        6.62425010        1.28558420        1.30384730
C        7.46093260        9.31155390        0.41648976
C        8.39854920       10.12998500        1.37044350
C        7.54501860        0.44227746        9.28217800
C        8.43466230        1.29991120       10.19786100
C        5.74441010        9.32184830        2.18852660
C        6.64510680       10.16940800        3.15687060
C        5.78423900        0.44406869        3.98225000
C        6.67999240        1.30304300        4.90876820
C        7.52411530        9.26512120        3.98896950
C        8.33152010       10.20316000        4.96715850
C        7.51614600        0.45278766        2.24217030
C        8.39106790        1.26323640        3.03703130
C        5.75988210        9.30649410        5.74469590
C        6.62120960       10.16446500        6.69197380
C        5.90786010        0.51193056        7.51861580
C        6.67291820        1.32222910        8.44396300
C        7.55490150        9.31319940        7.52363350
C        8.42757930       10.15691100        8.31640850
C        7.54925760        0.41897248        5.75286140
C        8.50298770        1.42825760        6.55136140
C        5.81856590        2.21578620        9.32300670
C        6.62190330        3.11074390       10.16079500
C        5.75704100        3.98604120        0.43957171
C        6.62478350        4.87103840        1.33178550
C        7.57390260        2.24374790        0.39415899
C        8.37798700        3.14733460        1.36217270
C        7.54847430        4.02185670        9.28729200
C        8.47651420        4.85826200       10.16627900
C        5.77665070        2.21954750        2.19320310
C        6.59120080        3.04097940        3.09159280
C        7.51612730        2.27574580        3.98703500
C        8.37268100        3.10728860        4.88294520
C        7.49748190        4.07175130        2.22608540
C        8.36478610        4.89145230        3.13953180
C        5.77368680        2.20304310        5.69236940
C        6.70391490        3.17904780        6.52053610
C        5.79336910        4.04941480        7.51671690
C        6.64831850        4.89674620        8.43186290
C        7.53646400        2.26800730        7.57665890
C        8.47118850        3.14025530        8.45700570
C        7.63023750        3.97708040        5.78914520
C        8.37139130        4.89400800        6.61389290
C        5.76843470        5.78407020        9.26357370
C        6.66371810        6.68909510       10.09916700
C        5.80447700        7.49032090        0.41013069
C        6.68657450        8.43686940        1.35279890
C        7.55666370        5.83725510        0.42288512
C        8.40177320        6.75123990        1.37201950
C        7.52249320        7.56739360        9.25878480
C        8.40959380        8.38167950       10.18707000
C        5.78266400        5.72784340        2.16595220
C        6.68245230        6.57606770        3.15077800
C        5.77528730        7.42251060        4.08098440
C        6.62952060        8.41861240        4.88018580
C        7.55850730        5.80848910        3.99244600
C        8.43493890        6.71961860        4.85991370
C        7.50588790        7.49688290        2.24142420
C        8.36017840        8.44676090        3.18115970
C        5.69584450        5.83836940        5.83468560
C        6.64438890        6.62953700        6.70374080
C        5.80363640        7.50937360        7.53856060
C        6.63034540        8.42006680        8.39460500
C        7.61638250        5.80098660        7.58119710
C        8.51384850        6.71581700        8.40243950
C        7.46242770        7.57502110        5.83613300
C        8.36824520        8.45225030        6.64618050
N        5.62172120        3.83726520        3.84779510
