&CONTROL
calculation = 'scf'
restart_mode = 'from_scratch'
verbosity = 'high'
wf_collect = .true.
pseudo_dir='/home/arpank/pseudopotentials/'
tprnfor = .true.
/
&SYSTEM
ibrav = 0
ecutwfc = 60
tot_charge = -1
nspin = 2
tot_magnetization = 2.0
nbnd = 480
nat = 215
ntyp = 2
input_dft = 'PBE0'
exx_fraction = 0.18
ecutfock = 120
/
&ELECTRONS
conv_thr = 1D-8
diago_full_acc=.true.
mixing_beta = 0.3
/
&IONS
ion_dynamics='bfgs'
ion_positions='default'
/
K_POINTS gamma
ATOMIC_SPECIES
C  12.01099968  C_ONCV_PBE-1.0.upf
N  14.00699997  N_ONCV_PBE-1.0.upf
CELL_PARAMETERS angstrom
    10.65000000      0.00000000      0.00000000
     0.00000000     10.65000000      0.00000000
     0.00000000      0.00000000     10.65000000
ATOMIC_POSITIONS angstrom
C        9.27974560        9.29554120        9.33081730
C       10.21096200       10.21906000       10.13786100
C        9.39688550        0.38521877        0.52123697
C       10.23130400        1.37297540        1.33109250
C        0.42175799        9.34426580        0.48660480
C        1.26231420       10.25001500        1.29413350
C        0.47259882        0.40313643        9.24555660
C        1.26255920        1.29287960       10.13691600
C        9.33823100        9.29247020        2.21164020
C       10.15717800       10.18284200        3.10113360
C        9.24997520        0.49400860        3.94010850
C       10.13296700        1.40071460        4.84482860
C        0.41560811        9.28937380        4.00108660
C        1.32497610       10.21544500        4.87634790
C        0.45600335        0.48238280        2.23249640
C        1.33614930        1.38651770        3.09454460
C        9.23915180        9.35719840        5.75850040
C       10.09675300       10.17115700        6.62301280
C        9.24020060        0.42149774        7.54225880
C       10.23569500        1.25986010        8.43356070
C        0.43637707        9.30673940        7.48370480
C        1.32348040       10.17473000        8.32884960
C        0.50329792        0.42595209        5.75843140
C        1.31550210        1.33603650        6.62876440
C        9.35698160        2.24900710        9.34592540
C       10.21809500        3.15159280       10.20548200
C        9.29098710        4.05713750        0.51331426
C       10.17084600        4.89041180        1.37372030
C        0.47679024        2.21895850        0.32646301
C        1.32684740        3.08557570        1.31759820
C        0.39435910        4.04246450        9.26013530
C        1.29249980        4.88161590       10.24547200
C        9.32969630        2.21483590        2.26801100
C       10.26722900        3.04167200        3.15687480
C        9.34543800        4.12928070        3.98257760
C       10.15649100        4.89051830        4.84326140
C        0.49288308        2.27281130        3.99702960
C        1.39654730        3.08798850        4.92061540
C        0.50268660        3.95123800        2.22385790
C        1.33123190        4.80173580        3.08419440
C        9.28476690        2.21730680        5.81406850
C       10.24130900        3.13235330        6.67305360
C        9.26490080        4.06385710        7.55414730
C       10.26168600        4.90437700        8.42344140
C        0.45943603        2.19768240        7.56527310
C        1.31863400        3.09614700        8.38874560
C        0.50002590        4.01061800        5.72989980
C        1.33230860        4.82413600        6.65905470
C        9.33615440        5.73481210        9.24629100
C       10.22353200        6.65396160       10.20684300
C        9.35564310        7.50703490        0.44640749
C       10.20405900        8.39063390        1.30317810
C        0.41859309        5.78156460        0.47675618
C        1.43151150        6.63007820        1.39624810
C        0.43265521        7.54040660        9.31111230
C        1.32028490        8.46962040       10.25129900
C        9.34850580        5.78017960        2.27998500
C       10.16978700        6.67056780        3.13563390
C        9.30095020        7.57632400        3.98466140
C       10.19998000        8.46420260        4.80141040
C        0.42316336        5.79081450        3.95141060
C        1.32077970        6.64163090        4.83177850
C        0.45279489        7.48491170        2.23018790
C        1.26542330        8.41204430        3.11236740
C        9.30592630        5.75744930        5.80379690
C       10.20814300        6.66741920        6.65803570
C        9.37563410        7.52560820        7.57458420
C       10.10325100        8.40581400        8.49080900
C        0.49317393        5.68938640        7.54654850
C        1.30568330        6.71928120        8.42128490
C        0.39771013        7.57307720        5.69600480
C        1.30096500        8.48070100        6.64159420
C        2.26195300        9.25062940        9.28111200
C        3.06033370       10.24473300       10.18439200
C        2.19451980        0.46782892        0.41343010
C        3.18734170        1.30326190        1.27840220
C        4.01604520        9.36041470        0.45794287
C        4.89266620       10.14589800        1.33442720
C        3.97190100        0.43242221        9.23668020
C        4.89612450        1.36822310       10.18518400
C        2.26503270        9.34680600        2.23670980
C        3.15829460       10.20415100        3.08860910
C        2.22163970        0.46652505        4.04043500
C        3.12095530        1.31084700        4.90567260
C        4.03856750        9.26107550        4.00127540
C        4.89035000       10.18908100        4.86499570
C        3.95524570        0.48002107        2.27156430
C        4.92971810        1.33586210        3.08401050
C        2.22301840        9.32088740        5.81885430
C        3.08122050       10.17902400        6.63922690
C        2.26721030        0.45225347        7.47958590
C        3.10308800        1.30865670        8.40645660
C        4.01561870        9.28939210        7.53002280
C        4.88016330       10.23723700        8.38974120
C        4.01087150        0.42221834        5.74761140
C        4.86484550        1.34327520        6.68382560
C        2.24919280        2.17513270        9.32348670
C        3.09828830        3.10005590       10.27536900
C        2.18148010        4.03963090        0.49019806
C        3.10620890        4.88316240        1.35222270
C        4.00400930        2.25035850        0.41396198
C        4.83879690        3.14469790        1.31374300
C        3.95859230        3.94640730        9.35013020
C        4.88219320        4.87929520       10.22436600
C        2.23866630        2.22310590        2.22020910
C        3.06069620        3.10294090        3.17509230
C        2.24122350        4.02557450        3.99693960
C        3.10454370        4.82809260        4.92397320
C        4.02132560        2.20559770        4.03654950
C        4.89282140        3.07902380        4.83190590
C        4.00568000        4.02977710        2.17668330
C        4.83909550        4.78394750        3.18137010
C        2.23728800        2.15958950        5.78610630
C        3.05585530        3.05080660        6.71162750
C        2.20468850        3.98163990        7.57287290
C        3.11056540        4.85415080        8.49616790
C        4.01449940        2.21889690        7.48249990
C        4.82779540        3.06349830        8.44721850
C        3.93419320        3.93258010        5.77007290
C        4.87093930        4.83093990        6.61206040
C        2.21539530        5.79074170        9.33434320
C        3.12841360        6.67228970       10.17905500
C        2.22281100        7.59940820        0.52456797
C        3.10601160        8.46758020        1.35202950
C        3.94653640        5.80292510        0.41662981
C        4.86623270        6.77246210        1.36733490
C        3.99408580        7.51464660        9.30084330
C        4.81989530        8.41734960       10.20855200
C        2.23707260        5.71090010        2.23961530
C        3.11604120        6.67079640        3.13224020
C        2.20440300        7.55071880        4.04353410
C        3.16697570        8.41512720        4.89498170
C        4.05893080        5.78787140        3.98018140
C        4.89913440        6.63016670        4.99294220
C        4.02260040        7.59144950        2.22858460
C        4.86619550        8.41730230        3.12502660
C        2.16441890        5.76052440        5.81377020
C        3.01035680        6.64120450        6.66652270
C        2.20090330        7.55836110        7.47270520
C        3.10833700        8.41755520        8.34867240
C        3.96710940        5.76046210        7.53293150
C        4.90379890        6.60147800        8.40846660
C        4.02760890        7.50492190        5.85861190
C        4.87742450        8.40734130        6.71979920
C        5.73817070        9.26450300        9.24704980
C        6.65549290       10.19183800       10.16137100
C        5.75835490        0.40894307        0.38632202
C        6.72999920        1.30463890        1.29916640
C        7.53017290        9.38753510        0.41740337
C        8.43181580       10.18489200        1.26770090
C        7.60327650        0.42088720        9.31588720
C        8.47457610        1.35084320       10.24429700
C        5.81166320        9.36118510        2.12595100
C        6.62665010       10.21072500        3.12097830
C        5.78541580        0.44506862        3.92352730
C        6.64341110        1.36794520        4.89970730
C        7.48562380        9.31498980        3.99536810
C        8.41192360       10.21078500        4.88586120
C        7.46386370        0.40424040        2.26611420
C        8.47197380        1.43008170        3.12897240
C        5.80077430        9.28637890        5.80347430
C        6.68449080       10.21482200        6.59479470
C        5.77157920        0.48416636        7.57113030
C        6.66543290        1.29170440        8.44438490
C        7.56397420        9.31278740        7.56494020
C        8.37097160       10.18561200        8.39777980
C        7.52946870        0.44716554        5.78266020
C        8.43710700        1.32538770        6.65327280
C        5.81036690        2.19422570        9.31936020
C        6.66240250        3.10436940       10.20513700
C        5.77728440        3.94006330        0.48629579
C        6.61486340        4.92248980        1.35461060
C        7.60136920        2.23947700        0.41181143
C        8.42174330        3.15369980        1.31668300
C        7.56634300        4.02249770        9.32329700
C        8.41089270        4.90857200       10.28686500
C        5.81721120        2.18179460        2.23669320
C        6.67536510        3.07004490        3.13041610
C        7.56657900        2.20140660        3.98346740
C        8.38513110        3.17386120        4.91100880
C        7.49893780        3.97293570        2.20665110
C        8.39573230        4.90777910        3.09219450
C        5.78515330        2.17065010        5.77411850
C        6.64706240        3.06382470        6.67263190
C        5.74805680        4.01226630        7.58177550
C        6.64788670        4.86354750        8.46164150
C        7.56822030        2.22383690        7.51892910
C        8.35498250        3.11432890        8.43201620
C        7.50887380        3.97803130        5.86207740
C        8.45707110        4.89690950        6.71696130
C        5.78813420        5.77591040        9.32091400
C        6.69388360        6.59319100       10.21682700
C        5.84248380        7.57330030        0.47302702
C        6.65829180        8.48047280        1.26792260
C        7.64495650        5.76842370        0.46957999
C        8.38639320        6.66446800        1.35360230
C        7.57457670        7.62356420        9.30772670
C        8.45719250        8.47333030       10.17719400
C        5.75690890        5.78554670        2.26454110
C        6.57087800        6.72973440        3.09533530
C        5.73228960        7.62289940        3.98531860
C        6.66479090        8.38724440        4.91710510
C        7.57705510        5.97507610        3.94957600
C        8.38541750        6.61757230        4.98307370
C        7.49740250        7.57189770        2.15860290
C        8.45397730        8.44396340        2.98461290
C        5.74435200        5.78746330        5.87034300
C        6.75115260        6.65654570        6.62020680
C        5.87348070        7.54769080        7.48363370
C        6.71685000        8.41980860        8.32356260
C        7.52338180        5.82877120        7.59952280
C        8.47364000        6.58065360        8.43012980
C        7.59899290        7.49706470        5.71909830
C        8.45858500        8.43938000        6.70130790
N        5.68654570        3.86330500        3.97082760
