&CONTROL
calculation = 'scf'
restart_mode = 'from_scratch'
verbosity = 'high'
wf_collect = .true.
pseudo_dir='/home/arpank/pseudopotentials/'
tprnfor = .true.
/
&SYSTEM
ibrav = 0
ecutwfc = 60
tot_charge = -1
nspin = 2
tot_magnetization = 2.0
nbnd = 480
nat = 215
ntyp = 2
input_dft = 'PBE0'
exx_fraction = 0.18
ecutfock = 120
/
&ELECTRONS
conv_thr = 1D-8
diago_full_acc=.true.
mixing_beta = 0.3
/
&IONS
ion_dynamics='bfgs'
ion_positions='default'
/
K_POINTS gamma
ATOMIC_SPECIES
C  12.01099968  C_ONCV_PBE-1.0.upf
N  14.00699997  N_ONCV_PBE-1.0.upf
CELL_PARAMETERS angstrom
    10.65000000      0.00000000      0.00000000
     0.00000000     10.65000000      0.00000000
     0.00000000      0.00000000     10.65000000
ATOMIC_POSITIONS angstrom
C        9.35947630        9.24845540        9.29478840
C       10.17956900       10.22012300       10.18094800
C        9.32303350        0.39060570        0.43701741
C       10.23572400        1.35975280        1.33118530
C        0.42562631        9.31477200        0.40579718
C        1.28995460       10.14713500        1.30940100
C        0.51679277        0.39917736        9.31823010
C        1.35155210        1.30884420       10.17146100
C        9.24807380        9.22873140        2.18460840
C       10.25061600       10.18324600        3.09692190
C        9.28970910        0.46503381        3.93486970
C       10.23843400        1.33356110        4.88279790
C        0.44496162        9.35310050        3.97012210
C        1.34123110       10.20915300        4.93148360
C        0.37707315        0.42055631        2.25086230
C        1.29558740        1.32765000        3.08640340
C        9.33059790        9.33822480        5.77532940
C       10.18174400       10.17026900        6.69429940
C        9.28850920        0.41589164        7.52013220
C       10.16116900        1.33946930        8.39985000
C        0.43735054        9.29405510        7.54640600
C        1.30380370       10.20403000        8.40959740
C        0.42506166        0.42952434        5.74439190
C        1.29417070        1.35209370        6.63868100
C        9.33373230        2.17977350        9.35791610
C       10.22778100        3.10894330       10.19476000
C        9.30736100        4.04762960        0.39857211
C       10.21882500        4.83888150        1.34447490
C        0.44676082        2.21970830        0.44812274
C        1.29087920        3.16196700        1.28461960
C        0.48127207        3.99056130        9.29330590
C        1.41372650        4.84657200       10.20494100
C        9.27660220        2.23410400        2.17093110
C       10.25348400        3.14607560        3.08576830
C        9.40284260        3.98436620        3.99744450
C       10.25831100        4.89733480        4.85253460
C        0.43034983        2.20253800        3.86582300
C        1.25921010        3.07754570        4.90116700
C        0.38968422        3.94849630        2.20740160
C        1.37220050        4.87235690        3.07764710
C        9.20977080        2.23564520        5.69831110
C       10.13177900        3.09193110        6.67782130
C        9.40531480        4.00632450        7.57601000
C       10.14839800        4.90462950        8.41830640
C        0.42492318        2.23631520        7.55994410
C        1.39112900        3.06174760        8.40412060
C        0.41646324        3.95760450        5.71742770
C        1.37275870        4.95370070        6.72608920
C        9.30740530        5.74756690        9.35298350
C       10.16646000        6.67128640       10.15629200
C        9.31263190        7.56124870        0.48850616
C       10.20816700        8.43437060        1.28279190
C        0.42556830        5.75412090        0.38537876
C        1.27322070        6.59805240        1.33852180
C        0.47834714        7.46887450        9.28020610
C        1.33343570        8.46914460       10.28241400
C        9.27306980        5.75284490        2.22475370
C       10.18035700        6.68768760        3.16126350
C        9.34142610        7.48828700        4.01653710
C       10.20755300        8.39969620        4.87914530
C        0.46950684        5.74410580        4.01677070
C        1.31687790        6.62625780        4.87478670
C        0.46326607        7.57355370        2.21327200
C        1.33482720        8.41948190        3.09385700
C        9.32514360        5.78413330        5.73749030
C       10.18896700        6.65373020        6.69466340
C        9.29314180        7.51671600        7.58029470
C       10.18135700        8.42398770        8.42550700
C        0.38776294        5.82521190        7.56733040
C        1.39378770        6.64318770        8.42549320
C        0.44375237        7.56461990        5.84802600
C        1.36903700        8.42349370        6.69270050
C        2.26908830        9.33051380        9.42817560
C        3.10876870       10.14522500       10.25689800
C        2.12645730        0.38179204        0.45571505
C        3.17388380        1.33740900        1.30284620
C        3.96801870        9.37446000        0.50096424
C        4.90999350       10.20768500        1.30225000
C        4.03068880        0.34058255        9.26043780
C        4.85932660        1.32434530       10.22134300
C        2.23872960        9.29556160        2.19145570
C        3.09550850       10.21498100        3.11324840
C        2.26155490        0.37179083        3.95988080
C        3.07106040        1.29397700        4.83594760
C        4.04295760        9.35516650        4.02497940
C        4.88117240       10.23341800        4.87111790
C        4.00147010        0.35885666        2.12290320
C        4.87442450        1.26854630        3.06976580
C        2.27780750        9.30632570        5.76256760
C        3.12577310       10.26198400        6.68537020
C        2.22117160        0.42314985        7.52380150
C        3.15966170        1.29811610        8.40565800
C        3.97802740        9.31869010        7.60306560
C        4.89852870       10.22878300        8.41033180
C        3.96493830        0.48400554        5.73601530
C        4.85814450        1.34463340        6.61095720
C        2.19809800        2.24178230        9.28302280
C        3.07930350        3.09085000       10.27950300
C        2.23463200        3.99082950        0.48655327
C        3.13110590        4.93630110        1.31096840
C        3.96047950        2.18634680        0.46693226
C        4.89687880        3.12071270        1.34162780
C        3.93054030        4.04947460        9.34457190
C        4.92991220        4.91382040       10.20915900
C        2.15618180        2.19981750        2.20964890
C        3.03573450        3.07144650        3.13840150
C        2.28976740        3.95271070        4.05743000
C        3.10177150        4.88648980        4.94460080
C        3.98037120        2.17092490        3.90241730
C        4.83003590        3.12035820        4.78651240
C        3.93588310        4.07317300        2.21599410
C        4.89925500        4.88478170        3.15786310
C        2.19206950        2.23418400        5.84168010
C        3.14681110        3.04632230        6.69192180
C        2.26446600        3.92626330        7.54124980
C        3.01576650        4.85032040        8.43024320
C        4.00006980        2.21282820        7.57458390
C        4.83608970        3.10654720        8.47953660
C        3.95386080        4.01511330        5.79054670
C        4.94803120        4.92097590        6.67799320
C        2.22260930        5.78742570        9.28956120
C        3.14363910        6.65385470       10.16567000
C        2.25124120        7.48368540        0.48059160
C        3.06745430        8.37395510        1.32423060
C        3.96666650        5.81890200        0.42040558
C        4.87523380        6.64227430        1.38189420
C        4.00382430        7.59226620        9.37465220
C        4.88275690        8.48246340       10.23019800
C        2.27237800        5.69457440        2.15505760
C        3.05267930        6.63929380        3.09553310
C        2.20579050        7.58470120        4.03842520
C        3.10585330        8.41306310        4.93230490
C        4.02192910        5.75472690        4.07472610
C        4.92876980        6.58683400        4.93357340
C        4.00775650        7.52196820        2.26809350
C        4.85714100        8.41379900        3.11130430
C        2.23729680        5.77856740        5.71632780
C        3.20438000        6.67372380        6.62603880
C        2.31597980        7.52313190        7.60320440
C        3.16159770        8.44086680        8.43353630
C        4.02367020        5.67805210        7.55183940
C        4.87341400        6.68275230        8.46086500
C        4.03576430        7.51878770        5.80720340
C        4.89091730        8.42622070        6.58166100
C        5.72826150        9.29225340        9.25373110
C        6.66496900       10.12996900       10.22727900
C        5.71978520        0.43924265        0.39137612
C        6.69883330        1.37674990        1.29345170
C        7.56288440        9.36318490        0.40104843
C        8.43100580       10.24089200        1.31923610
C        7.51171860        0.43319808        9.35602390
C        8.45722190        1.31427020       10.15591500
C        5.80323390        9.35719760        2.25523070
C        6.63442900       10.18681300        3.06425370
C        5.83666720        0.48788834        3.90300340
C        6.67462710        1.45185490        4.87048340
C        7.55449900        9.30653470        4.02343350
C        8.35048680       10.26679200        4.90255800
C        7.53485370        0.40753843        2.11915490
C        8.42603250        1.36819020        3.02670120
C        5.75373570        9.33417320        5.78143180
C        6.63763370       10.19999100        6.66562590
C        5.79103670        0.38210455        7.55808750
C        6.58543610        1.33185140        8.47517880
C        7.51428740        9.26191190        7.46778210
C        8.48212200       10.08920800        8.46555680
C        7.52276140        0.46300428        5.76332420
C        8.41241680        1.32855890        6.64806650
C        5.72508400        2.25786650        9.32549020
C        6.68883700        3.09464960       10.21529500
C        5.82402520        4.05723800        0.43577372
C        6.63459380        4.92313530        1.34814490
C        7.56630630        2.23622730        0.41041178
C        8.41699270        3.11684220        1.28082640
C        7.58268510        4.10444520        9.35986480
C        8.43716450        4.98881890       10.18195200
C        5.77199440        2.16502000        2.17850630
C        6.59749660        3.06065160        3.04685750
C        7.49720020        2.30724190        3.93939070
C        8.51169890        3.16172770        4.88630170
C        7.49310380        4.02861700        2.20489370
C        8.44872770        4.88828330        3.17575780
C        5.74613300        2.28154160        5.77578720
C        6.62635270        3.15829560        6.62755380
C        5.73563490        4.04913960        7.54308830
C        6.67897920        4.99984280        8.40632630
C        7.44748250        2.25011350        7.52490720
C        8.42023260        3.09892230        8.38423260
C        7.60009520        4.00818640        5.86515710
C        8.49608830        4.83074070        6.62505620
C        5.79449280        5.80701330        9.31470760
C        6.66773320        6.65503110       10.25790000
C        5.79939290        7.55688840        0.50610080
C        6.70184200        8.46584750        1.32111740
C        7.50738270        5.85738330        0.44399150
C        8.45080080        6.72537910        1.37860490
C        7.50941480        7.61327460        9.36119200
C        8.43916050        8.47235930       10.19701400
C        5.81860440        5.75263770        2.22670500
C        6.59865930        6.62552830        3.17297860
C        5.76034530        7.50374470        4.10753850
C        6.65069540        8.46150120        5.01454740
C        7.59424230        5.81474320        3.98271010
C        8.36083860        6.65312630        4.85876580
C        7.51957520        7.51705880        2.29623140
C        8.44096900        8.41558520        3.14063230
C        5.73492230        5.80094540        5.91037590
C        6.67540080        6.65277310        6.66362420
C        5.78902600        7.54053800        7.52018060
C        6.64452440        8.40059380        8.36784060
C        7.61076200        5.86284170        7.51199110
C        8.47294010        6.68768310        8.43580470
C        7.47748540        7.50525460        5.72737170
C        8.50749390        8.36319580        6.63638040
N        5.69638570        3.95918010        3.95281000
