&CONTROL
calculation = 'scf'
restart_mode = 'from_scratch'
verbosity = 'high'
wf_collect = .true.
pseudo_dir='/home/arpank/pseudopotentials/'
tprnfor = .true.
/
&SYSTEM
ibrav = 0
ecutwfc = 60
tot_charge = -1
nspin = 2
tot_magnetization = 2.0
nbnd = 480
nat = 215
ntyp = 2
input_dft = 'PBE0'
exx_fraction = 0.18
ecutfock = 120
/
&ELECTRONS
conv_thr = 1D-8
diago_full_acc=.true.
mixing_beta = 0.3
/
&IONS
ion_dynamics='bfgs'
ion_positions='default'
/
K_POINTS gamma
ATOMIC_SPECIES
C  12.01099968  C_ONCV_PBE-1.0.upf
N  14.00699997  N_ONCV_PBE-1.0.upf
CELL_PARAMETERS angstrom
    10.65000000      0.00000000      0.00000000
     0.00000000     10.65000000      0.00000000
     0.00000000      0.00000000     10.65000000
ATOMIC_POSITIONS angstrom
C        9.36877890        9.40763270        9.36095260
C       10.22534900       10.22121000       10.20128800
C        9.33181690        0.46152446        0.37770862
C       10.18864700        1.30478330        1.28383080
C        0.43881721        9.28106570        0.43018663
C        1.36113740       10.25798500        1.26501170
C        0.40074033        0.41101267        9.26904080
C        1.33893800        1.30010070       10.23474300
C        9.30860380        9.34127580        2.18842460
C       10.20865800       10.16358700        3.08223650
C        9.34085010        0.40381632        4.00467030
C       10.16415200        1.27764580        4.84747480
C        0.49428812        9.33301230        3.97971560
C        1.31671740       10.22063500        4.91902430
C        0.50444040        0.44981901        2.15761640
C        1.28544660        1.32187570        3.09118850
C        9.32355820        9.30679250        5.77945450
C       10.20378600       10.26505300        6.62375310
C        9.22297700        0.54319164        7.48423690
C       10.14087800        1.34163570        8.40216610
C        0.46423955        9.38351710        7.51982600
C        1.35570400       10.25666000        8.39340340
C        0.44652996        0.45932901        5.74145670
C        1.31802090        1.30916310        6.63485940
C        9.27870080        2.17254760        9.29759920
C       10.26985900        3.10379710       10.24893900
C        9.28632860        4.03950840        0.48529289
C       10.21254400        4.86732900        1.37493900
C        0.45137838        2.18579750        0.47896438
C        1.32823290        3.04361980        1.35027210
C        0.41974333        3.98018640        9.28074250
C        1.30508180        4.88316980       10.23183500
C        9.34069180        2.22913700        2.26400550
C       10.20990600        3.08189590        3.09204920
C        9.36554150        4.03250570        4.03609890
C       10.20634800        4.88888140        4.86659600
C        0.42802730        2.24116000        3.98062630
C        1.35131820        3.13780300        4.86259630
C        0.45252430        4.12050130        2.28871820
C        1.25390130        4.93989290        3.11278930
C        9.35489060        2.18668590        5.71583640
C       10.30807500        3.18253900        6.65977430
C        9.36545290        4.03238730        7.53520580
C       10.23198200        4.87811680        8.35969120
C        0.50774024        2.20624640        7.51925230
C        1.30602780        3.11333090        8.39094930
C        0.53541348        4.09522290        5.77844120
C        1.40155310        4.93949230        6.62140370
C        9.26143600        5.73463480        9.37341020
C       10.20552400        6.71709420       10.24140900
C        9.28431490        7.53382790        0.45637295
C       10.19847900        8.44283040        1.29240470
C        0.38560135        5.77390610        0.42974414
C        1.29590020        6.61560210        1.33909980
C        0.50872337        7.59619980        9.27803000
C        1.40094120        8.42042860       10.19296500
C        9.35091240        5.82163310        2.23226730
C       10.18884800        6.66434950        3.16939750
C        9.29089820        7.60215740        3.97822000
C       10.22577900        8.46683340        4.84734330
C        0.44373379        5.75846030        4.04294340
C        1.36944500        6.70018350        4.91581450
C        0.46047122        7.60975400        2.25074290
C        1.37713410        8.35887620        3.19167710
C        9.30382670        5.78914930        5.73541060
C       10.16373600        6.69089070        6.62690340
C        9.34942570        7.60919880        7.60465450
C       10.17747700        8.43515460        8.43872480
C        0.43839902        5.85218030        7.49486900
C        1.21561320        6.65307570        8.36454080
C        0.46755454        7.52816760        5.70937920
C        1.28764890        8.42387330        6.70241540
C        2.24602930        9.36550070        9.31621320
C        3.12669340       10.18562900       10.22527200
C        2.31316980        0.46932160        0.45530785
C        3.05732900        1.28950960        1.36344960
C        3.99497470        9.30274580        0.42192928
C        4.88553460       10.17815200        1.39335800
C        4.00476350        0.39882063        9.30914090
C        4.90319970        1.31576730       10.18683500
C        2.21950070        9.28143410        2.21313420
C        3.10296210       10.17755100        3.14414490
C        2.17417020        0.39983416        4.02983900
C        3.03517310        1.35249950        4.89446580
C        3.93843060        9.25714370        3.99371190
C        4.88002840       10.15337500        4.88020560
C        3.98931690        0.39844395        2.24096820
C        4.87164140        1.31617880        3.10412140
C        2.15540590        9.36657660        5.76565780
C        3.06783230       10.24141200        6.60976120
C        2.25209650        0.53593666        7.58391990
C        3.04231630        1.38631540        8.47329820
C        3.94313550        9.24153750        7.56809110
C        4.78946520       10.25434800        8.41769760
C        3.99397690        0.44404622        5.80147060
C        4.92061640        1.34101690        6.68207170
C        2.20305340        2.30405920        9.29170840
C        3.10281260        3.02666180       10.21974700
C        2.15864860        3.99126780        0.44189702
C        3.08126750        4.82176230        1.29060240
C        4.02053170        2.10997320        0.37649061
C        4.88376630        3.10504790        1.26254920
C        3.99069220        3.96053050        9.26905720
C        4.82986940        4.84487350       10.16086100
C        2.21786310        2.20913210        2.30664610
C        3.12896240        3.09537310        3.08812640
C        2.17667850        4.08564370        3.98792600
C        3.14622180        4.89631230        4.90248640
C        4.06894830        2.23733520        4.00878260
C        4.93830690        3.07307580        4.78679680
C        3.98976000        3.99004330        2.24704440
C        4.89106500        4.79548370        3.15703660
C        2.22582150        2.21330830        5.75712350
C        3.06067770        3.13379280        6.59397140
C        2.21385990        3.96414270        7.53088510
C        3.06449220        4.89202350        8.37518250
C        4.01519440        2.24003020        7.58124210
C        4.86906560        3.10258040        8.38100300
C        4.08744030        4.04219590        5.76533180
C        4.89715260        4.97289000        6.70318990
C        2.19593520        5.76043750        9.29335430
C        3.08945090        6.63884410       10.09835300
C        2.24010450        7.46742130        0.37786289
C        3.10727700        8.40016330        1.28918800
C        4.04496970        5.78431110        0.44629949
C        4.90202890        6.58685120        1.41673990
C        3.95998030        7.52519000        9.30088070
C        4.87933580        8.44856590       10.26681800
C        2.18343300        5.75641640        2.23879710
C        3.07656660        6.60919310        3.05931670
C        2.24893320        7.48809720        3.99692870
C        3.09558190        8.44705650        4.93337040
C        4.06022250        5.70236340        4.02103380
C        4.97004860        6.61068130        4.91699920
C        3.96487470        7.52060730        2.18661950
C        4.86869220        8.40721860        3.13325110
C        2.25267530        5.80616310        5.75179680
C        3.07723240        6.58968510        6.68957490
C        2.18433010        7.47541750        7.56224280
C        3.06856640        8.44201680        8.37211280
C        4.06184600        5.73792830        7.58844200
C        4.88922610        6.61809800        8.45318990
C        4.01337250        7.55696110        5.76901870
C        4.86444530        8.41996420        6.68008350
C        5.74466200        9.30465370        9.36279810
C        6.60766030       10.16281600       10.24583100
C        5.74601790        0.43766775        0.43421095
C        6.66954780        1.33595300        1.34739330
C        7.52116660        9.24726850        0.43422843
C        8.42775060       10.22173100        1.35177710
C        7.53481760        0.36419900        9.35766820
C        8.43735000        1.25235780       10.19506200
C        5.71980350        9.31452210        2.18213640
C        6.72516920       10.22880400        3.13197950
C        5.80320320        0.43440244        4.01039330
C        6.72749460        1.34453960        4.90986190
C        7.52567490        9.32025020        3.97926960
C        8.45894240       10.18416600        4.91721300
C        7.57686990        0.50286215        2.26257480
C        8.36517040        1.40810370        3.16160730
C        5.74457520        9.24637890        5.76366630
C        6.61504940       10.20976400        6.57849320
C        5.79944240        0.46128627        7.47681240
C        6.66144720        1.28126860        8.40863210
C        7.45826660        9.33879690        7.50207360
C        8.34966770       10.18551900        8.40555530
C        7.56484090        0.44775721        5.77541700
C        8.39584170        1.33202100        6.61835380
C        5.76956440        2.19917300        9.33128980
C        6.70893560        3.09887380       10.15842300
C        5.74075560        3.92049490        0.46920174
C        6.60045540        4.89351140        1.36102760
C        7.58295760        2.24187050        0.54461420
C        8.43828700        3.11774260        1.34859680
C        7.58949850        3.94533760        9.28544780
C        8.36609070        4.85509510       10.15367000
C        5.84237770        2.20778830        2.20741310
C        6.60412320        3.13461930        3.02973870
C        7.50630510        2.24400970        4.03006930
C        8.36389500        3.17281680        4.80755530
C        7.56025540        4.03488580        2.17906710
C        8.47757270        4.92989910        3.13989880
C        5.76334590        2.21091420        5.83384240
C        6.66603420        3.15100840        6.63322410
C        5.83991500        4.07956900        7.53002950
C        6.70258590        4.87871570        8.39682070
C        7.52690490        2.24661240        7.54153270
C        8.45224700        3.14812230        8.50056880
C        7.57253030        3.99992740        5.81471190
C        8.48859720        4.81175850        6.59641550
C        5.76434080        5.83462750        9.37359140
C        6.58350350        6.57803590       10.33216400
C        5.74240980        7.46912450        0.45787586
C        6.59742300        8.39421250        1.37034620
C        7.50362780        5.81772220        0.52719812
C        8.41655250        6.67265730        1.38159450
C        7.55669870        7.57977680        9.35879360
C        8.44805530        8.42098120       10.22554900
C        5.78376400        5.68222270        2.16619670
C        6.66493060        6.63103670        3.07253250
C        5.74774200        7.51360850        3.99273230
C        6.68237450        8.39609060        4.91654130
C        7.58530530        5.83393840        3.96046030
C        8.38265150        6.70232070        4.87494620
C        7.55660030        7.56126980        2.24217990
C        8.49230130        8.44557890        3.06063660
C        5.78650180        5.88431090        5.87191310
C        6.71883250        6.67949000        6.65768130
C        5.80678810        7.48686310        7.57007720
C        6.59407650        8.40854950        8.42322090
C        7.57275780        5.72886200        7.62507330
C        8.37997830        6.64022000        8.46018220
C        7.61915390        7.48743970        5.74962300
C        8.44631440        8.51507880        6.67340150
N        5.71564800        3.90198160        3.85940230
