&CONTROL
calculation = 'scf'
restart_mode = 'from_scratch'
verbosity = 'high'
wf_collect = .true.
pseudo_dir='/home/arpank/pseudopotentials/'
tprnfor = .true.
/
&SYSTEM
ibrav = 0
ecutwfc = 60
tot_charge = -1
nspin = 2
tot_magnetization = 2.0
nbnd = 480
nat = 215
ntyp = 2
input_dft = 'PBE0'
exx_fraction = 0.18
ecutfock = 120
/
&ELECTRONS
conv_thr = 1D-8
diago_full_acc=.true.
mixing_beta = 0.3
/
&IONS
ion_dynamics='bfgs'
ion_positions='default'
/
K_POINTS gamma
ATOMIC_SPECIES
C  12.01099968  C_ONCV_PBE-1.0.upf
N  14.00699997  N_ONCV_PBE-1.0.upf
CELL_PARAMETERS angstrom
    10.65000000      0.00000000      0.00000000
     0.00000000     10.65000000      0.00000000
     0.00000000      0.00000000     10.65000000
ATOMIC_POSITIONS angstrom
C        9.28979680        9.26619960        9.32497200
C       10.25769800       10.18793600       10.20790600
C        9.31663190        0.43924270        0.40907582
C       10.21089500        1.31690320        1.32079100
C        0.43674094        9.28660160        0.36277352
C        1.36216250       10.16944500        1.22179800
C        0.44125419        0.51109302        9.28758150
C        1.36514350        1.27305960       10.18624500
C        9.28238660        9.34174060        2.18841100
C       10.22492300       10.26066100        3.13707450
C        9.29045350        0.45814574        4.00170640
C       10.18662100        1.29074700        4.84150280
C        0.41822591        9.29749850        3.98335870
C        1.28188120       10.21393100        4.93284190
C        0.40392168        0.40954407        2.16815660
C        1.27281540        1.32806570        3.07635060
C        9.31004370        9.36312480        5.75202760
C       10.23004200       10.16262200        6.66940310
C        9.36435480        0.41805302        7.54334850
C       10.21944900        1.35134080        8.44771760
C        0.35481573        9.34641280        7.54116920
C        1.33549200       10.26894500        8.41020020
C        0.43768369        0.41046202        5.72611950
C        1.32959760        1.32712650        6.71046620
C        9.32228200        2.15198350        9.27520450
C       10.19689400        3.11294920       10.18600800
C        9.25435180        3.94517780        0.45147956
C       10.24322300        4.81996120        1.35107800
C        0.49386464        2.18013640        0.43655314
C        1.33556040        3.15447200        1.30149280
C        0.51188430        3.99474580        9.26111370
C        1.34909930        4.89778360       10.17885800
C        9.27177920        2.16902070        2.22011080
C       10.17091900        3.15453840        3.08560080
C        9.29957490        3.97258190        4.05635710
C       10.19130100        4.88117550        4.87445410
C        0.40783456        2.28178590        3.96754290
C        1.31009500        3.05274380        4.92342490
C        0.42354394        4.02551330        2.16798950
C        1.35262600        4.91140850        3.07249690
C        9.30465880        2.19491300        5.75730600
C       10.14737700        3.10748130        6.74145450
C        9.35258150        3.93062320        7.54733830
C       10.21208400        4.83863380        8.41823760
C        0.41894519        2.21522620        7.54394050
C        1.40734240        3.10313580        8.36819160
C        0.41831980        3.96996800        5.78409260
C        1.27205720        4.85584410        6.63064570
C        9.35342690        5.75954550        9.33864110
C       10.27614600        6.64114100       10.26655900
C        9.28447430        7.47686040        0.50676211
C       10.19620100        8.50637220        1.34469650
C        0.47735030        5.79976380        0.42497295
C        1.34569440        6.65591890        1.22086480
C        0.43172362        7.49122930        9.22397040
C        1.35153780        8.40363990       10.14068900
C        9.37179790        5.81906340        2.28394310
C       10.23354000        6.67631680        3.14969240
C        9.27359700        7.60378840        3.99882930
C       10.10720700        8.48191850        4.93402700
C        0.47937524        5.81878940        4.03244040
C        1.34890410        6.69085950        4.83112470
C        0.39498103        7.63705030        2.20273030
C        1.38091220        8.43070600        3.01911090
C        9.31443830        5.71605530        5.76908180
C       10.17652800        6.66129290        6.58004740
C        9.30856600        7.43358300        7.44053830
C       10.22788300        8.38858410        8.47777090
C        0.45367388        5.70925070        7.51292360
C        1.30276930        6.62854460        8.38557810
C        0.42998636        7.56040610        5.79905870
C        1.26503410        8.46629780        6.74525630
C        2.18309700        9.32853840        9.33672210
C        3.06221330       10.21325000       10.16150800
C        2.26445270        0.53892373        0.41664270
C        3.11477870        1.33812520        1.36554360
C        3.98809140        9.37494130        0.42660661
C        4.78664750       10.26379700        1.33984090
C        3.99571480        0.47440454        9.29289110
C        4.87323640        1.32639540       10.21835000
C        2.19943390        9.35813320        2.20240590
C        3.09390130       10.20932100        3.07295170
C        2.28980110        0.46445326        3.93610510
C        3.11473940        1.33236280        4.93292570
C        3.97933490        9.36505190        3.91550650
C        4.88798390       10.22221600        4.88416630
C        4.00181060        0.44193985        2.21878580
C        4.79426210        1.31295370        3.16058880
C        2.20664770        9.28448070        5.73340610
C        3.14340260       10.18012900        6.68337480
C        2.24795000        0.43000406        7.53745030
C        3.16156180        1.36515760        8.38493110
C        4.05387760        9.21493130        7.57666300
C        4.99447760       10.14906900        8.40276970
C        3.94243160        0.43394963        5.76571290
C        4.93681750        1.30609620        6.73012970
C        2.24568000        2.13994760        9.27377630
C        3.05447060        3.04807130       10.25127400
C        2.15531320        3.98578890        0.45491219
C        3.09672770        4.88718670        1.33940860
C        4.01617490        2.22633650        0.43908347
C        4.88534650        3.23022120        1.27770730
C        4.02023540        3.95326080        9.36055900
C        4.86727160        4.85078660       10.23408600
C        2.20024760        2.24246620        2.13091030
C        3.13039650        3.12436970        3.17548380
C        2.24618360        4.01917420        4.01054330
C        3.12467190        4.91957830        4.94106370
C        3.99668640        2.24875570        4.03180820
C        4.89659890        3.10793860        4.82602970
C        3.95295470        3.99994960        2.18883900
C        4.87017360        4.85186460        3.03215490
C        2.25716080        2.13006370        5.78725840
C        3.08273280        3.10956040        6.63475070
C        2.22482900        3.98336880        7.54819940
C        3.10165960        4.83935610        8.41944930
C        4.01344290        2.23083580        7.58458440
C        4.89651250        3.13617440        8.44271270
C        4.05529680        4.06973210        5.76370400
C        4.94132510        4.88543930        6.58531590
C        2.27050560        5.77773930        9.33749770
C        3.11136850        6.67754640       10.25248300
C        2.20464070        7.57357070        0.44921964
C        3.12241490        8.39519710        1.31584540
C        3.99138230        5.80602640        0.42582353
C        4.81345690        6.67882180        1.33704810
C        4.02930100        7.57801170        9.33806690
C        4.88875920        8.56254810       10.16553500
C        2.21457270        5.82704680        2.18901700
C        3.13046910        6.63906910        3.09924340
C        2.33738490        7.52370870        4.03588240
C        3.11263060        8.44268480        4.88097880
C        4.04299270        5.76396040        3.98005100
C        4.87063760        6.67875610        4.97440230
C        3.99873370        7.54898110        2.18503400
C        4.85121460        8.43738430        3.05047290
C        2.24798610        5.78133080        5.81137190
C        3.12048370        6.64146540        6.65626010
C        2.20145720        7.50440290        7.60273660
C        3.10569580        8.37940720        8.44363730
C        4.06112740        5.75297700        7.53232660
C        4.88740680        6.71190980        8.50671680
C        3.99513570        7.56108560        5.78922050
C        4.94583900        8.32788910        6.69517540
C        5.77297210        9.37208600        9.33779770
C        6.60819470       10.25615200       10.27626100
C        5.72952070        0.42864758        0.41771040
C        6.56781630        1.33469060        1.37529390
C        7.46917500        9.32589410        0.51678061
C        8.44554720       10.20983600        1.32721340
C        7.52956060        0.42730263        9.33379160
C        8.45978660        1.32110430       10.21626400
C        5.73712640        9.36500060        2.24658320
C        6.60589750       10.19887700        3.08781340
C        5.70500300        0.39042987        3.99185110
C        6.61713820        1.27731270        4.90966480
C        7.54154680        9.29915120        4.03863590
C        8.42497020       10.18112600        4.82271470
C        7.48742100        0.41577357        2.24308560
C        8.43212670        1.37856870        3.04896340
C        5.73735990        9.31797360        5.78915810
C        6.68362700       10.21403100        6.68690580
C        5.80171070        0.47521102        7.47892260
C        6.65938320        1.35203430        8.44174550
C        7.57682520        9.31960120        7.54637940
C        8.48208440       10.16931400        8.45238350
C        7.53435030        0.45043129        5.72083870
C        8.44917110        1.29003270        6.65913470
C        5.74294140        2.27824560        9.39405720
C        6.68307890        3.11420330       10.29549600
C        5.78692930        3.99606290        0.43542672
C        6.66635170        4.89377950        1.34269380
C        7.59314660        2.27737170        0.49070791
C        8.44670490        3.08922590        1.32272500
C        7.57951770        4.03887340        9.36962670
C        8.48651700        4.86981070       10.12509900
C        5.76893010        2.16516000        2.22553510
C        6.60690780        3.09315920        3.09529440
C        7.52013580        2.23957890        3.95692850
C        8.35439840        3.12585660        4.97623990
C        7.48165230        3.99074780        2.21251110
C        8.38203770        4.91741240        3.14844580
C        5.83697690        2.22072810        5.80958210
C        6.70281260        3.12874830        6.69531400
C        5.72717510        4.05313560        7.52737190
C        6.73178090        4.95697130        8.43464750
C        7.58887140        2.21628180        7.53257710
C        8.41966460        3.18606880        8.44263510
C        7.55527940        3.97915620        5.88199530
C        8.48172210        4.81465080        6.68945480
C        5.74914160        5.81219140        9.28958780
C        6.66920360        6.63795790       10.27596200
C        5.72932560        7.50781220        0.42579674
C        6.63206930        8.38571850        1.34795350
C        7.58374890        5.74654340        0.36892113
C        8.50472810        6.60189470        1.27290210
C        7.57529310        7.55885020        9.32711940
C        8.46070220        8.36422820       10.19362600
C        5.76274700        5.76157920        2.19967440
C        6.59722870        6.71076030        3.04272200
C        5.75481520        7.57246470        3.97820940
C        6.63698140        8.41212920        4.83389810
C        7.61141290        5.82919610        3.92206310
C        8.44448630        6.60223910        4.96697390
C        7.53748390        7.49059460        2.24573970
C        8.42324560        8.48424390        3.10721810
C        5.74385560        5.79198180        5.88932990
C        6.58840960        6.59680810        6.74506180
C        5.81111930        7.55385020        7.61875010
C        6.69294500        8.52401450        8.49111500
C        7.55058770        5.74453780        7.58151040
C        8.41513070        6.67622300        8.35823160
C        7.52482160        7.47127890        5.79802400
C        8.35308240        8.43142550        6.60640420
N        5.70347890        3.84563860        3.89744450
