&CONTROL
calculation = 'scf'
restart_mode = 'from_scratch'
verbosity = 'high'
wf_collect = .true.
pseudo_dir='/home/arpank/pseudopotentials/'
tprnfor = .true.
/
&SYSTEM
ibrav = 0
ecutwfc = 60
tot_charge = -1
nspin = 2
tot_magnetization = 2.0
nbnd = 480
nat = 215
ntyp = 2
input_dft = 'PBE0'
exx_fraction = 0.18
ecutfock = 120
/
&ELECTRONS
conv_thr = 1D-8
diago_full_acc=.true.
mixing_beta = 0.3
/
&IONS
ion_dynamics='bfgs'
ion_positions='default'
/
K_POINTS gamma
ATOMIC_SPECIES
C  12.01099968  C_ONCV_PBE-1.0.upf
N  14.00699997  N_ONCV_PBE-1.0.upf
CELL_PARAMETERS angstrom
    10.65000000      0.00000000      0.00000000
     0.00000000     10.65000000      0.00000000
     0.00000000      0.00000000     10.65000000
ATOMIC_POSITIONS angstrom
C        9.28160150        9.29650980        9.34794050
C       10.20837400       10.19654200       10.22174900
C        9.28561520        0.43218053        0.37983779
C       10.25063600        1.34244160        1.27036670
C        0.46089389        9.34585000        0.46065378
C        1.34164370       10.22614700        1.36922410
C        0.41714342        0.44949949        9.40965430
C        1.37044170        1.30736640       10.19408400
C        9.36142860        9.28547950        2.18010400
C       10.17770500       10.19125800        3.08414280
C        9.31654850        0.42154949        4.03897880
C       10.19066300        1.25388970        4.90001350
C        0.44599533        9.33960610        4.02022670
C        1.28109740       10.13558100        4.83330610
C        0.37556376        0.49133941        2.14686600
C        1.19711250        1.33808130        3.12294850
C        9.33325610        9.27293210        5.80613570
C       10.29999100       10.18332300        6.64521850
C        9.34058440        0.40751378        7.56565240
C       10.16815500        1.28443020        8.37223850
C        0.46773026        9.35381810        7.55018230
C        1.32887090       10.25480900        8.41341670
C        0.45964682        0.45049319        5.76232680
C        1.31967590        1.37409450        6.67541740
C        9.36942750        2.26342480        9.39974100
C       10.24388400        3.14457330       10.26153700
C        9.33425990        4.03036980        0.49422748
C       10.25833500        4.90270980        1.34838960
C        0.49132261        2.20248880        0.44926767
C        1.30228760        3.03252820        1.35789610
C        0.50357638        3.98369570        9.34219160
C        1.34222330        4.85755510       10.22952300
C        9.30913470        2.17214630        2.20272280
C       10.19172700        3.06085470        3.08857360
C        9.33342320        3.93938110        3.94992420
C       10.21768200        4.93440940        4.84181220
C        0.43776590        2.14595560        3.97647760
C        1.34032340        3.15820100        4.86876470
C        0.33982987        3.98118520        2.21770020
C        1.32395170        4.87044160        3.15399850
C        9.30654820        2.13032850        5.76391530
C       10.23641700        3.07634110        6.66913090
C        9.39029900        4.01139880        7.53873370
C       10.23009700        4.91540040        8.48918300
C        0.46672158        2.21148330        7.50859870
C        1.28799900        3.10189570        8.43059620
C        0.48071864        4.00707340        5.76769420
C        1.36728980        4.86119750        6.71915510
C        9.32712300        5.66611910        9.37433330
C       10.22507700        6.64168510       10.23452600
C        9.35628380        7.54646340        0.47982593
C       10.18146400        8.38424880        1.39467070
C        0.40637131        5.73020970        0.44153957
C        1.32610380        6.62225420        1.29647320
C        0.53071364        7.59587040        9.27030600
C        1.32013570        8.35253640       10.22912900
C        9.37375480        5.74763310        2.23340130
C       10.23930900        6.63684800        3.09816950
C        9.25562860        7.54846650        4.05669140
C       10.26905100        8.48489190        4.89589240
C        0.51049102        5.71386710        3.93194190
C        1.41676260        6.65138920        4.84047670
C        0.48809282        7.49866380        2.20533490
C        1.34633140        8.45332080        3.15480120
C        9.32177040        5.76612270        5.71197220
C       10.21598800        6.60608480        6.60616010
C        9.36679860        7.49528170        7.57013960
C       10.20709900        8.41113630        8.47565300
C        0.44819160        5.73980280        7.58424390
C        1.36439390        6.66142540        8.42387960
C        0.46115172        7.51491020        5.67110490
C        1.25476840        8.34830520        6.62719210
C        2.26236390        9.23820190        9.32548260
C        3.06516770       10.24332600       10.19974900
C        2.20878460        0.50057644        0.50587396
C        3.13697560        1.34271290        1.27805720
C        4.02543340        9.38347720        0.45944947
C        4.86577860       10.25636100        1.39085360
C        3.93453680        0.48668358        9.31066590
C        4.82426010        1.38405300       10.24184800
C        2.22330520        9.25972980        2.16616820
C        3.11966990       10.22128700        3.08744250
C        2.18252500        0.50173638        4.02365540
C        3.03214630        1.32538240        4.90135620
C        4.05544830        9.34666130        3.92240430
C        4.93081780       10.19405900        4.87322600
C        4.04469170        0.53530837        2.24733040
C        4.83053470        1.35649290        3.08674970
C        2.22157810        9.32453280        5.80166070
C        3.08632380       10.15804700        6.64903930
C        2.23910100        0.42136360        7.62955250
C        3.09693390        1.24426690        8.46247840
C        3.98469300        9.32594610        7.53704420
C        4.85096510       10.23366500        8.39844430
C        3.98448070        0.42286771        5.78604330
C        4.76956890        1.38510460        6.64006180
C        2.16930660        2.21080070        9.34892150
C        3.12438090        3.04711310       10.21838200
C        2.21239420        3.92031300        0.44406198
C        3.08157340        4.84681320        1.34488460
C        4.04985430        2.26592330        0.42881435
C        4.82559500        3.13676620        1.26847980
C        4.00149510        3.94455270        9.29911770
C        4.86093860        4.91195220       10.16318600
C        2.17099180        2.27097110        2.26276100
C        3.10538210        3.11068130        3.09496670
C        2.16649470        4.00030710        4.01305320
C        3.11516680        4.84635870        4.91738080
C        3.97896970        2.18945070        4.02102900
C        4.80934770        3.13381330        4.84203680
C        3.97706200        4.01412030        2.14291630
C        4.95107500        4.82035830        3.08788480
C        2.27385260        2.28527400        5.75311760
C        3.15550490        3.16764070        6.63096820
C        2.30302620        3.99475830        7.57573500
C        3.16227260        4.88635460        8.42471180
C        4.01105570        2.22625720        7.53086160
C        4.88523330        3.10483390        8.42815380
C        4.01973380        4.02246450        5.79637500
C        4.92602010        4.89155740        6.63003880
C        2.23248160        5.78367330        9.34244270
C        3.03199270        6.68613750       10.25326300
C        2.21607850        7.52793750        0.42150455
C        3.16898910        8.43895010        1.32315580
C        3.92045000        5.78958990        0.39552950
C        4.82285940        6.65496870        1.30811540
C        4.00167630        7.54056950        9.31301090
C        4.90403600        8.41459160       10.18884700
C        2.21647170        5.74598770        2.21754910
C        3.13657560        6.60805860        3.08632700
C        2.25709530        7.53631490        3.98805380
C        3.15066350        8.50729710        4.88717080
C        3.97843960        5.69445290        3.92985820
C        4.88903860        6.68198440        4.81353340
C        4.06370720        7.59956910        2.24080460
C        4.99257840        8.40347780        3.06471380
C        2.19038020        5.75697850        5.77358230
C        3.12132780        6.59895690        6.65613930
C        2.20070310        7.52477370        7.45684240
C        3.13301760        8.48040510        8.44852120
C        4.04343370        5.82895090        7.53812120
C        4.92170210        6.67740110        8.47254110
C        3.99344720        7.54391160        5.75912460
C        4.87030030        8.37994650        6.61705890
C        5.73695540        9.24836260        9.33626630
C        6.58323160       10.24406700       10.16082900
C        5.72014630        0.47119278        0.46359673
C        6.67694730        1.42336840        1.28324420
C        7.41706590        9.31368570        0.44201888
C        8.36971300       10.22409300        1.31276520
C        7.48615780        0.43684134        9.30761570
C        8.41629690        1.40298950       10.15564400
C        5.78180990        9.33210610        2.21772980
C        6.64690990       10.23830900        3.13721060
C        5.80541120        0.41257017        3.96966910
C        6.67597140        1.32439670        4.88892770
C        7.49850400        9.23163800        4.01563600
C        8.39527560       10.20672800        4.88005760
C        7.55049140        0.44741926        2.20954630
C        8.45081250        1.33340780        3.15045640
C        5.77893220        9.24533170        5.72794780
C        6.62178000       10.19329600        6.62451170
C        5.73622390        0.46497956        7.50153360
C        6.66535230        1.36571490        8.39579460
C        7.46800000        9.27964160        7.53924010
C        8.42765390       10.12742000        8.41022400
C        7.47080150        0.46659183        5.82618470
C        8.42881790        1.33265670        6.68992580
C        5.76294410        2.29284780        9.32408870
C        6.64961670        3.15102490       10.19351300
C        5.73978000        4.13890270        0.46143048
C        6.66262170        4.89179760        1.33208570
C        7.53733450        2.27578630        0.42296752
C        8.42324660        3.17212590        1.38311910
C        7.50490180        4.08460780        9.28357600
C        8.46238940        4.84396650       10.24757800
C        5.83550260        2.28259910        2.19052100
C        6.71998700        3.12684240        3.17892060
C        7.48533340        2.25221410        4.00608360
C        8.45400410        3.05722510        4.85387500
C        7.51462890        4.01892270        2.32804400
C        8.39582060        4.84237900        3.13029250
C        5.77705030        2.20014190        5.75112090
C        6.71191910        3.09920140        6.60219490
C        5.76687100        3.96188730        7.54487640
C        6.67087420        4.90010150        8.36572760
C        7.51093110        2.27585340        7.55066490
C        8.40547550        3.10553890        8.44222220
C        7.74569300        3.90649490        5.82274040
C        8.43143550        4.91925220        6.60525090
C        5.66565410        5.82406070        9.28707150
C        6.65481570        6.65799330       10.24210300
C        5.78956820        7.54715100        0.45300736
C        6.62853000        8.50844610        1.34889370
C        7.54772610        5.73884160        0.38488524
C        8.40827880        6.59608070        1.31351580
C        7.56308580        7.51468000        9.33834460
C        8.38936980        8.37921330       10.24541800
C        5.76505620        5.78832130        2.28004040
C        6.61868890        6.65813230        3.05115760
C        5.89212160        7.49043700        3.96922070
C        6.66043160        8.47927690        4.86447430
C        7.57909570        5.84958780        4.01092920
C        8.40894890        6.66014950        4.86277240
C        7.51461130        7.64017130        2.23497150
C        8.41777950        8.48024690        3.15839960
C        5.68592540        5.79955840        5.90848730
C        6.65543080        6.63703780        6.58661300
C        5.76573310        7.56757810        7.48924130
C        6.68010340        8.45505520        8.43569610
C        7.52305300        5.76046160        7.52872530
C        8.38755050        6.62348070        8.45980610
C        7.50117790        7.55685990        5.79690670
C        8.41078840        8.39031570        6.67486750
N        5.68278430        3.94789860        3.97665000
