&CONTROL
calculation = 'scf'
restart_mode = 'from_scratch'
verbosity = 'high'
wf_collect = .true.
pseudo_dir='/home/arpank/pseudopotentials/'
tprnfor = .true.
/
&SYSTEM
ibrav = 0
ecutwfc = 60
tot_charge = -1
nspin = 2
tot_magnetization = 2.0
nbnd = 480
nat = 215
ntyp = 2
input_dft = 'PBE0'
exx_fraction = 0.18
ecutfock = 120
/
&ELECTRONS
conv_thr = 1D-8
diago_full_acc=.true.
mixing_beta = 0.3
/
&IONS
ion_dynamics='bfgs'
ion_positions='default'
/
K_POINTS gamma
ATOMIC_SPECIES
C  12.01099968  C_ONCV_PBE-1.0.upf
N  14.00699997  N_ONCV_PBE-1.0.upf
CELL_PARAMETERS angstrom
    10.65000000      0.00000000      0.00000000
     0.00000000     10.65000000      0.00000000
     0.00000000      0.00000000     10.65000000
ATOMIC_POSITIONS angstrom
C        9.34210920        9.38983680        9.36996530
C       10.18562200       10.19920400       10.20689700
C        9.31230490        0.42442821        0.42973605
C       10.25197700        1.44757030        1.32753120
C        0.42190106        9.36834580        0.47452593
C        1.34085170       10.24881200        1.39552330
C        0.45906271        0.45761973        9.33477590
C        1.33788420        1.29954350       10.29118100
C        9.31832950        9.33954030        2.18901590
C       10.21080600       10.26924700        3.07042890
C        9.27719930        0.45371287        3.99538230
C       10.19827600        1.37743260        4.82776860
C        0.43881176        9.24331440        3.98672170
C        1.34283840       10.25739700        4.87395230
C        0.46233314        0.43294344        2.21219910
C        1.33086630        1.28767820        3.12401080
C        9.29863520        9.35644610        5.79942230
C       10.13117900       10.22429100        6.60727050
C        9.28362180        0.44081470        7.56533560
C       10.22118700        1.28385590        8.43761480
C        0.39242373        9.28462880        7.54772700
C        1.31057830       10.19186000        8.46868340
C        0.41557383        0.46302322        5.79967310
C        1.26499140        1.32115090        6.62179290
C        9.31514560        2.24479350        9.29432810
C       10.18995100        3.11333160       10.21078100
C        9.31474840        3.96321440        0.45186161
C       10.29138900        4.80498160        1.32258930
C        0.48878136        2.29812100        0.45069923
C        1.32779450        3.11623670        1.39296120
C        0.40467089        4.06123810        9.30380020
C        1.36411880        4.91431500       10.10449400
C        9.31682140        2.23968890        2.22416260
C       10.19052200        3.17751420        3.07944000
C        9.28956420        4.07708920        3.98756200
C       10.18371900        4.87280520        4.96620060
C        0.50955865        2.17037810        3.91112310
C        1.29629690        3.04461710        4.84811590
C        0.39014122        3.96189650        2.24215270
C        1.28403470        4.88430280        3.16664470
C        9.31052750        2.16501300        5.68775720
C       10.18421900        3.13666930        6.60150740
C        9.29926520        3.99003240        7.54604020
C       10.24341400        4.88299840        8.42741880
C        0.46858633        2.16684910        7.48793720
C        1.33077990        3.05679970        8.41240440
C        0.38496256        3.90359690        5.75248480
C        1.36462770        4.83721050        6.66567070
C        9.30609570        5.74116850        9.29222830
C       10.16758000        6.74642110       10.17513300
C        9.32768460        7.60467350        0.47462736
C       10.25104800        8.45025870        1.40112320
C        0.39687005        5.78717000        0.40280084
C        1.35893000        6.72615720        1.33798040
C        0.49692792        7.60617870        9.28097470
C        1.33533760        8.46801440       10.24139800
C        9.25803240        5.74114530        2.22776520
C       10.20840100        6.60643910        3.05310370
C        9.34360900        7.51946680        3.99989720
C       10.20366600        8.45916220        4.94594490
C        0.41419107        5.72293470        3.99239590
C        1.34742400        6.55063130        4.79961010
C        0.51377355        7.54293380        2.26394330
C        1.34709200        8.43281130        3.15855360
C        9.29689920        5.72680990        5.86062290
C       10.19655400        6.62074990        6.72903580
C        9.27447050        7.52788140        7.57858920
C       10.18706100        8.49005530        8.47726210
C        0.43190392        5.79623150        7.50474900
C        1.40437820        6.62433440        8.38599670
C        0.42611719        7.54224220        5.82737170
C        1.32090480        8.39126470        6.67875110
C        2.17488050        9.33388270        9.33891600
C        3.10998720       10.17707400       10.26039100
C        2.18552440        0.47654287        0.49463530
C        3.10528340        1.34714360        1.31456930
C        3.95513230        9.35316240        0.46474655
C        4.86855950       10.24539900        1.37446890
C        4.01713640        0.40439780        9.35120640
C        4.90071330        1.35028530       10.25835100
C        2.27438210        9.31683100        2.19117940
C        3.09266430       10.22561400        3.12807010
C        2.19770430        0.39546205        4.02902340
C        3.14146730        1.33374650        4.91468970
C        3.99982100        9.28883420        4.07195960
C        4.86677020       10.20946900        4.81147660
C        4.01611180        0.47807254        2.22916540
C        4.90261630        1.35663270        3.06732770
C        2.26814510        9.27263290        5.78288540
C        3.16797580       10.24312900        6.67651870
C        2.23118040        0.37879050        7.54571420
C        3.07051500        1.31921070        8.50632740
C        3.99850350        9.25440060        7.56998550
C        4.90621040       10.13177000        8.47244450
C        3.99718960        0.42347114        5.75548670
C        4.92280420        1.30186160        6.67001990
C        2.22871980        2.12321580        9.35227790
C        3.11653960        3.11167700       10.23583900
C        2.22471780        3.98238510        0.41359184
C        3.08786220        4.81579160        1.40279220
C        3.99776190        2.20316470        0.38598762
C        4.99447990        3.03798440        1.39010810
C        4.02176690        3.95103740        9.41312090
C        4.80609950        4.83633960       10.23308200
C        2.20322340        2.20992730        2.19406130
C        3.10250520        3.06239070        3.02519760
C        2.21957360        3.98096030        3.99933340
C        3.05123350        4.88459040        4.84785870
C        3.91561880        2.24977990        3.95749990
C        4.82680680        3.07725070        4.86018620
C        3.92329710        4.04301140        2.15386670
C        4.95506380        4.81681990        3.14378180
C        2.23263990        2.21837700        5.78788090
C        3.09656630        3.14641720        6.68913670
C        2.24905030        4.01844340        7.53140610
C        3.09668640        4.78861740        8.38850100
C        3.96103970        2.24362530        7.53082090
C        4.88853640        3.16537900        8.36425930
C        4.03284920        3.96781710        5.72017930
C        4.95484950        4.85515600        6.60841990
C        2.23817950        5.75643930        9.25553670
C        3.13479860        6.63755580       10.20262500
C        2.21642030        7.55729110        0.45725291
C        3.11678360        8.47169670        1.33636530
C        3.99259410        5.76093260        0.47145372
C        4.82056600        6.64781200        1.36840480
C        4.01538760        7.55111330        9.38549760
C        4.82817310        8.44363420       10.18324300
C        2.17700740        5.78397790        2.18692300
C        3.16010410        6.69076090        3.03843230
C        2.26833530        7.57032660        3.93981700
C        3.04415060        8.48028360        4.88407060
C        4.03261680        5.78846400        3.93626380
C        4.85966490        6.66705080        4.88328790
C        3.96774500        7.52976410        2.17891130
C        4.91502070        8.40050450        3.14819140
C        2.27457030        5.71499070        5.78522580
C        3.16310760        6.63483910        6.60603100
C        2.27390250        7.54486550        7.50968120
C        3.05787380        8.35331550        8.45740390
C        4.01690970        5.80931510        7.55903790
C        4.86966460        6.64595260        8.38307880
C        3.98959220        7.51785070        5.79059430
C        4.84683680        8.40016270        6.62596850
C        5.76256490        9.30766900        9.36042660
C        6.67332150       10.21857500       10.19531400
C        5.74750880        0.46141985        0.43027511
C        6.65310370        1.32582130        1.35175870
C        7.55057490        9.35021790        0.40406901
C        8.44705610       10.22881100        1.35284160
C        7.52233740        0.49357336        9.36046740
C        8.38977950        1.27501530       10.23955200
C        5.79111660        9.32811210        2.28172200
C        6.74820590       10.17214900        3.13640840
C        5.84078940        0.41837577        3.99655590
C        6.68188380        1.33408310        4.93702290
C        7.65314160        9.26412180        3.92118610
C        8.47810820       10.19360300        4.89921680
C        7.60797720        0.50505906        2.21535700
C        8.41665880        1.32619900        3.09770050
C        5.78078250        9.30167400        5.74379580
C        6.62839640       10.21016900        6.63181820
C        5.80475870        0.47218578        7.51480140
C        6.61884100        1.36624850        8.37746690
C        7.54910910        9.30560010        7.55074990
C        8.39642200       10.29433400        8.51397160
C        7.57575110        0.43353140        5.75349580
C        8.42246790        1.29908040        6.65108900
C        5.76979070        2.23329150        9.29538560
C        6.67866780        3.11686260       10.14977500
C        5.80863420        3.94624200        0.47045036
C        6.64298650        4.93948540        1.38624630
C        7.54146490        2.22808830        0.42471038
C        8.44472780        3.23348500        1.34448590
C        7.44887300        3.99566030        9.29924520
C        8.41981510        4.91296200       10.21204100
C        5.79554550        2.18394890        2.20455230
C        6.64241350        3.15957570        3.16464170
C        7.53487160        2.23708130        3.97538340
C        8.35393350        3.07005120        4.84664020
C        7.53294080        4.06921900        2.25481730
C        8.38463120        4.89954970        3.16670440
C        5.81421070        2.24740270        5.71017710
C        6.68167660        3.01442200        6.60649930
C        5.78159540        3.97982630        7.55503250
C        6.55784580        4.98879700        8.39937290
C        7.61871510        2.10816430        7.49095100
C        8.41021170        3.08605730        8.39232340
C        7.52666730        3.95643300        5.74589860
C        8.37705940        4.85988810        6.64672460
C        5.71440180        5.74587830        9.33771300
C        6.59424760        6.60804140       10.17675000
C        5.77455010        7.54848610        0.43115560
C        6.60245090        8.49376060        1.30264850
C        7.50338960        5.77786340        0.46000234
C        8.43394750        6.73809430        1.28858180
C        7.50771880        7.50292820        9.26041330
C        8.43473520        8.45729220       10.23652600
C        5.82351890        5.74002900        2.24055450
C        6.68901170        6.64324520        3.07377360
C        5.79765600        7.58204260        4.02656700
C        6.67043180        8.48169570        4.90967180
C        7.58913700        5.85136750        3.94312800
C        8.41382210        6.72524450        4.97705400
C        7.55573020        7.58108940        2.10465550
C        8.45660310        8.44953800        3.04738840
C        5.82719430        5.82738150        5.78250040
C        6.62764640        6.67165610        6.66538200
C        5.77094830        7.53523500        7.45384590
C        6.68451130        8.38954150        8.42508360
C        7.49710490        5.71272010        7.51175110
C        8.40592060        6.64034900        8.49569720
C        7.56971520        7.53910340        5.80819490
C        8.45199990        8.44388690        6.77182470
N        5.69034940        3.93601620        3.86726640
