&CONTROL
calculation = 'scf'
restart_mode = 'from_scratch'
verbosity = 'high'
wf_collect = .true.
pseudo_dir='/home/arpank/pseudopotentials/'
tprnfor = .true.
/
&SYSTEM
ibrav = 0
ecutwfc = 60
tot_charge = -1
nspin = 2
tot_magnetization = 2.0
nbnd = 480
nat = 215
ntyp = 2
input_dft = 'PBE0'
exx_fraction = 0.18
ecutfock = 120
/
&ELECTRONS
conv_thr = 1D-8
diago_full_acc=.true.
mixing_beta = 0.3
/
&IONS
ion_dynamics='bfgs'
ion_positions='default'
/
K_POINTS gamma
ATOMIC_SPECIES
C  12.01099968  C_ONCV_PBE-1.0.upf
N  14.00699997  N_ONCV_PBE-1.0.upf
CELL_PARAMETERS angstrom
    10.65000000      0.00000000      0.00000000
     0.00000000     10.65000000      0.00000000
     0.00000000      0.00000000     10.65000000
ATOMIC_POSITIONS angstrom
C        9.27725780        9.25497550        9.30655470
C       10.21407200       10.19245000       10.13559300
C        9.32567710        0.47633882        0.45944648
C       10.26676800        1.31216930        1.36155840
C        0.37767590        9.34143570        0.43913712
C        1.31885970       10.13207900        1.31740910
C        0.43998465        0.45438848        9.29476090
C        1.34599930        1.31874250       10.20216000
C        9.26373020        9.29381730        2.24518360
C       10.22007400       10.21844200        3.09527290
C        9.30784640        0.47117259        3.93597380
C       10.23707400        1.30881720        4.82515950
C        0.49247902        9.28944570        3.95100450
C        1.36327210       10.25542300        4.86316070
C        0.45683016        0.48270162        2.27861970
C        1.32130290        1.27759360        3.12920450
C        9.29436550        9.34652610        5.81209980
C       10.21257700       10.24589600        6.65394530
C        9.27115350        0.44256543        7.53147200
C       10.25577500        1.31759110        8.40867640
C        0.49950806        9.36943550        7.49602700
C        1.36023080       10.24218700        8.41691290
C        0.38118780        0.42299382        5.77024740
C        1.33328710        1.35440830        6.70785490
C        9.30585570        2.26154910        9.40332860
C       10.25859500        3.12418520       10.20852600
C        9.29271830        3.95963220        0.49116088
C       10.25467400        4.85969840        1.27891300
C        0.48016191        2.19064420        0.39071117
C        1.39258090        3.12148290        1.35737390
C        0.38040384        4.01212830        9.32007160
C        1.29028730        4.84838270       10.19259900
C        9.34067100        2.22311630        2.19428750
C       10.24539300        3.09226580        3.14586790
C        9.35509270        3.98957930        4.01441380
C       10.28829100        4.84711040        4.92237830
C        0.41020250        2.25635700        4.05572870
C        1.29760460        3.03636870        4.93666700
C        0.52084738        4.03333510        2.22442640
C        1.36417400        4.88286130        3.11128860
C        9.38167200        2.19312820        5.79241530
C       10.21181000        3.15270700        6.77312440
C        9.28250320        3.94686870        7.54224810
C       10.12638300        4.90250390        8.43114970
C        0.45206798        2.26833300        7.54184040
C        1.30197410        3.14443780        8.41598160
C        0.51404629        3.93275580        5.79701250
C        1.38857710        4.89024710        6.63319400
C        9.18784960        5.72918430        9.26035490
C       10.18832000        6.59391680       10.13497900
C        9.30250450        7.56059100        0.42227257
C       10.16745400        8.42785450        1.37454520
C        0.46950515        5.79925180        0.41340751
C        1.33200920        6.58750510        1.32677720
C        0.45602412        7.56293230        9.27463350
C        1.21995860        8.43400090       10.17343000
C        9.38404010        5.72949870        2.26880470
C       10.22929900        6.66449280        3.13410970
C        9.29581040        7.52531660        4.03604120
C       10.18111500        8.45401230        4.88511550
C        0.49671904        5.79818330        3.99529740
C        1.31512550        6.74393940        4.90940390
C        0.36458284        7.57094000        2.25888590
C        1.24861050        8.43164220        3.04610150
C        9.37773120        5.78150010        5.80923170
C       10.18722400        6.64653380        6.64541280
C        9.31299010        7.53475930        7.57418350
C       10.16782900        8.45001940        8.39274770
C        0.50852026        5.70613100        7.46306750
C        1.37699180        6.61379030        8.37147020
C        0.37952545        7.54681220        5.74253740
C        1.26950250        8.40985380        6.61529090
C        2.13359870        9.28762970        9.29043200
C        3.08325600       10.17092900       10.17820200
C        2.23671320        0.46549237        0.41576868
C        3.18098370        1.34952780        1.38886530
C        3.97271190        9.34764430        0.42399189
C        4.88869240       10.19621300        1.35016340
C        4.11041880        0.46267241        9.34912760
C        4.86442320        1.34363240       10.25146600
C        2.17016600        9.40066430        2.19446670
C        3.03292380       10.15334800        3.11933440
C        2.20182380        0.38592627        4.06204850
C        3.07784700        1.29106870        4.88705310
C        3.91783630        9.30387560        3.99541150
C        4.84347470       10.23741400        4.81139310
C        4.03452250        0.38104365        2.22774500
C        4.92083190        1.30079500        3.13408760
C        2.21345780        9.33570050        5.76592800
C        3.08465310       10.27533400        6.65094080
C        2.25718700        0.52027667        7.58993290
C        3.12625570        1.31976150        8.43600070
C        3.90644900        9.34604690        7.56702370
C        4.86144120       10.16887800        8.44451200
C        3.99714210        0.41254321        5.75899100
C        4.90258780        1.34952200        6.63616400
C        2.28559930        2.29688260        9.32990340
C        3.05969220        3.15412320       10.23090100
C        2.23115990        3.95163820        0.48680820
C        3.04452910        4.89334200        1.35366390
C        3.94716310        2.27343980        0.48243667
C        4.87002940        3.17282910        1.38911910
C        3.92909360        4.05204300        9.32807730
C        4.89691020        4.90556030       10.18573900
C        2.24858780        2.22620620        2.28633960
C        3.12821540        3.15276340        3.12617120
C        2.22218420        4.05631940        4.05267450
C        3.13702280        4.91544640        4.95511790
C        3.93845990        2.21109790        4.00876530
C        4.90637240        3.15087400        4.84944180
C        3.94454580        4.02441110        2.23388570
C        4.84564220        4.78307270        3.18273280
C        2.24686840        2.20738670        5.77563320
C        3.10377370        3.13031840        6.56953800
C        2.24273310        4.04470300        7.50433330
C        3.17089450        4.95402510        8.43452790
C        3.99471020        2.19863390        7.51507070
C        4.94372220        3.16451360        8.37818720
C        3.99181930        4.04931170        5.70702010
C        4.93178440        4.92877010        6.62839810
C        2.25897620        5.75426070        9.31746530
C        3.11048530        6.67998300       10.11653900
C        2.12310600        7.54387230        0.47447133
C        3.18802160        8.39220350        1.26333070
C        3.99336710        5.85857280        0.45420051
C        4.88033800        6.64878640        1.33056970
C        3.95088410        7.52910010        9.28522460
C        4.84296110        8.41189110       10.14558000
C        2.28013460        5.75375170        2.21699040
C        3.13587690        6.63224990        3.07143170
C        2.24284220        7.52033740        3.97314300
C        3.08983020        8.44848000        4.89104280
C        3.99916280        5.80156040        4.02459950
C        4.88855000        6.67555550        4.81213130
C        4.06761110        7.53300150        2.26897430
C        4.79927900        8.42352240        3.15028320
C        2.26536260        5.76001170        5.79837470
C        3.18702530        6.66209680        6.69551320
C        2.20619670        7.58971220        7.57159210
C        3.05372870        8.49520010        8.39281400
C        4.04995590        5.80910960        7.64833030
C        4.97087450        6.65608640        8.45614260
C        4.02614120        7.56557270        5.71090020
C        4.87857720        8.44281580        6.65230610
C        5.71146610        9.30693700        9.27578130
C        6.70751250       10.19905400       10.19091900
C        5.71689080        0.41177398        0.40474963
C        6.65660310        1.20764700        1.28548450
C        7.52898730        9.32024650        0.41927398
C        8.42454610       10.21497400        1.39198140
C        7.50159750        0.43586276        9.30632710
C        8.43598630        1.33079980       10.20984900
C        5.82539100        9.23530960        2.21928030
C        6.62495940       10.19325000        3.15617530
C        5.73086570        0.45782850        4.00758070
C        6.62225800        1.32631020        4.90277500
C        7.58033770        9.34393910        3.99838030
C        8.40204750       10.22224000        4.82776930
C        7.45661960        0.48505929        2.22384150
C        8.39852380        1.32869360        3.11410310
C        5.72963320        9.39864680        5.73733530
C        6.59863570       10.19685500        6.63525120
C        5.78000720        0.41231796        7.52895970
C        6.60129540        1.24908740        8.44036080
C        7.55174190        9.27375960        7.56838150
C        8.39209540       10.12844400        8.46398880
C        7.54550170        0.36861999        5.80722240
C        8.40183720        1.30949570        6.63816840
C        5.78422060        2.23854380        9.28590210
C        6.70379560        3.05786120       10.18178600
C        5.76419840        4.00171550        0.45084245
C        6.58770930        4.90206090        1.29634430
C        7.56709350        2.19604950        0.42881186
C        8.48211070        3.10447190        1.37374010
C        7.48626660        3.99658210        9.34829170
C        8.39790720        4.87356320       10.12080200
C        5.78188180        2.14105460        2.15442120
C        6.57876590        3.10847120        3.12680700
C        7.54214740        2.26749560        3.97240610
C        8.45468100        3.11130930        4.90825000
C        7.53942910        4.01674340        2.23048730
C        8.38557340        4.83892180        3.17918780
C        5.73830730        2.32805330        5.73355700
C        6.66789200        3.14178460        6.66983400
C        5.77193650        4.02007400        7.52595590
C        6.64470910        4.91352960        8.44276460
C        7.60250660        2.23224320        7.47128870
C        8.48744310        3.08609470        8.44336740
C        7.61659360        3.99804870        5.74570810
C        8.44622530        4.81573000        6.61392250
C        5.85449560        5.81543810        9.37987360
C        6.64389890        6.68514960       10.24482200
C        5.81419120        7.46174850        0.44251540
C        6.67240480        8.43936690        1.34670180
C        7.51844940        5.73369180        0.42760411
C        8.43062520        6.54424240        1.29411640
C        7.59334670        7.56004450        9.37393920
C        8.43334820        8.40072760       10.17705800
C        5.76723410        5.66764540        2.29101420
C        6.72197870        6.61691140        3.13674760
C        5.69115180        7.51321640        3.95932000
C        6.65216610        8.35013080        4.88052680
C        7.66381890        5.81267120        3.94828090
C        8.44226430        6.65635450        4.94952130
C        7.62182620        7.49329920        2.27582330
C        8.40480170        8.46309320        3.09677530
C        5.75930900        5.91325020        5.78952030
C        6.64534780        6.69568170        6.65254830
C        5.77273970        7.52609890        7.53989540
C        6.67469700        8.43443950        8.44260080
C        7.60162770        5.71999650        7.53106340
C        8.41660900        6.66791470        8.35998810
C        7.52977530        7.51712910        5.77174860
C        8.44674520        8.43362360        6.61014720
N        5.65471990        3.86934570        3.94517770
