&CONTROL
calculation = 'scf'
restart_mode = 'from_scratch'
verbosity = 'high'
wf_collect = .true.
pseudo_dir='/home/arpank/pseudopotentials/'
tprnfor = .true.
/
&SYSTEM
ibrav = 0
ecutwfc = 60
tot_charge = -1
nspin = 2
tot_magnetization = 2.0
nbnd = 480
nat = 215
ntyp = 2
input_dft = 'PBE0'
exx_fraction = 0.18
ecutfock = 120
/
&ELECTRONS
conv_thr = 1D-8
diago_full_acc=.true.
mixing_beta = 0.3
/
&IONS
ion_dynamics='bfgs'
ion_positions='default'
/
K_POINTS gamma
ATOMIC_SPECIES
C  12.01099968  C_ONCV_PBE-1.0.upf
N  14.00699997  N_ONCV_PBE-1.0.upf
CELL_PARAMETERS angstrom
    10.65000000      0.00000000      0.00000000
     0.00000000     10.65000000      0.00000000
     0.00000000      0.00000000     10.65000000
ATOMIC_POSITIONS angstrom
C        9.37049510        9.30365020        9.32719970
C       10.21987500       10.18811300       10.24331500
C        9.26175840        0.48840012        0.41148695
C       10.27846200        1.43010650        1.34696120
C        0.42534920        9.27078900        0.46727596
C        1.37607650       10.24591000        1.41176080
C        0.48196672        0.40435113        9.31309080
C        1.36871430        1.25656100       10.22486300
C        9.29151000        9.27992540        2.22894190
C       10.27470200       10.21216800        3.09035390
C        9.33469190        0.43223214        4.06981890
C       10.21854700        1.33387950        4.99307300
C        0.43707935        9.36122100        3.88127520
C        1.30993500       10.14722800        4.89325450
C        0.47190252        0.51574405        2.15364400
C        1.25405310        1.31042360        3.10987500
C        9.36864690        9.36373650        5.74031620
C       10.21029400       10.22484500        6.65719560
C        9.30743770        0.47664336        7.48132180
C       10.12665700        1.27882430        8.51437310
C        0.40103826        9.32126880        7.60598590
C        1.39450930       10.18597900        8.47526060
C        0.45151400        0.45619405        5.80412000
C        1.26990170        1.33926570        6.67288550
C        9.31099940        2.17736240        9.27437120
C       10.22135500        3.08137710       10.24233000
C        9.39385670        3.99636230        0.40858689
C       10.27577700        4.86740110        1.27057790
C        0.47202076        2.23127900        0.46153764
C        1.39566100        3.14287490        1.40058250
C        0.43697789        4.02914910        9.33716610
C        1.28743340        4.85727730       10.23511200
C        9.36589880        2.20256100        2.15340190
C       10.24454400        3.14081580        3.10604850
C        9.32040370        4.00399350        3.99957410
C       10.14164400        4.87383410        4.88140700
C        0.39212112        2.18931700        4.01604610
C        1.33345890        3.05163040        4.89934800
C        0.44881524        3.99595690        2.21041220
C        1.27769300        4.92569060        3.08686960
C        9.31083820        2.20827130        5.80896210
C       10.18747800        3.12546870        6.70578370
C        9.28395220        4.00826840        7.61765800
C       10.17053200        4.87818170        8.47215360
C        0.47161751        2.22281520        7.57511100
C        1.41604840        3.10295350        8.46848040
C        0.36640205        3.97952490        5.82481470
C        1.30766160        4.92965720        6.68529000
C        9.35391820        5.80679610        9.35307390
C       10.24391600        6.72588270       10.19593100
C        9.34335630        7.56669660        0.42269308
C       10.19465400        8.44599640        1.39659530
C        0.41027117        5.84013850        0.39444996
C        1.34170830        6.70997780        1.29683120
C        0.42664721        7.56107240        9.30692960
C        1.41548180        8.35361370       10.21300500
C        9.30620350        5.70472540        2.19264770
C       10.16849900        6.64417550        2.98765490
C        9.32587710        7.58215740        3.92412010
C       10.24263200        8.35491450        4.80752960
C        0.41973423        5.78237670        3.96011150
C        1.24784790        6.70080410        4.83924350
C        0.48234964        7.51422230        2.21650230
C        1.34813390        8.45905620        3.09917820
C        9.30290920        5.82881500        5.77230570
C       10.15973400        6.65738510        6.63204510
C        9.26390720        7.60117340        7.54560540
C       10.23077400        8.51346500        8.41313860
C        0.36101759        5.80418900        7.57505690
C        1.33364820        6.63534430        8.44875930
C        0.38423026        7.49098590        5.74523210
C        1.33968130        8.43830790        6.64629670
C        2.27428010        9.30334500        9.33467140
C        3.10864750       10.20157500       10.29031900
C        2.15990190        0.38843513        0.50111567
C        3.09923970        1.35348650        1.38286480
C        4.04347620        9.30967800        0.42158380
C        4.86368540       10.19338300        1.29269290
C        4.00720150        0.49105456        9.41441320
C        4.91449460        1.36507710       10.18684800
C        2.24538700        9.32989240        2.17139360
C        3.14416340       10.24099000        3.12509270
C        2.18152370        0.42489098        4.03288940
C        3.07732250        1.38483300        4.82120320
C        4.07243460        9.31723330        4.03365550
C        4.86000260       10.24089000        4.83336460
C        4.02049600        0.49050121        2.19516570
C        4.84738810        1.26553920        3.09207030
C        2.16350990        9.35774030        5.75469240
C        3.11926130       10.24554700        6.65712330
C        2.24345630        0.42889112        7.53481450
C        3.04442730        1.35330380        8.45275830
C        4.05014980        9.26561630        7.54836180
C        4.94201760       10.14000200        8.45809860
C        3.94368560        0.39381113        5.73056370
C        4.85895400        1.31269520        6.65295630
C        2.24886330        2.15419570        9.30309840
C        3.12666820        3.11073330       10.18518600
C        2.28854460        4.00304480        0.45725734
C        3.11841880        4.89487450        1.32163540
C        4.00047850        2.24810190        0.48775496
C        4.89582760        2.99404730        1.38008230
C        3.95395930        3.91755920        9.29591020
C        4.91763440        4.78408260       10.19668800
C        2.29838200        2.24456610        2.23369880
C        3.09924050        3.12115990        3.07929650
C        2.17668160        3.99968340        3.91323390
C        3.09844110        4.90205160        4.85708130
C        4.03063930        2.15652430        4.01270810
C        4.90160090        3.02674140        4.80293350
C        3.98721750        3.98617440        2.22890880
C        4.92783080        4.84921110        3.12282020
C        2.21517900        2.25742660        5.87364980
C        3.12156050        3.04936670        6.63621320
C        2.29145440        4.02960030        7.50677520
C        3.07098310        4.88503140        8.37119250
C        3.99606730        2.27385440        7.57097120
C        4.87594710        3.10139450        8.45790020
C        3.95558700        4.01125740        5.70088570
C        4.93602620        4.95756520        6.59178730
C        2.15847640        5.74617860        9.38623720
C        3.10941290        6.66098190       10.18108300
C        2.27614390        7.49942100        0.44781341
C        3.11358010        8.44140160        1.29461530
C        4.00823730        5.71775740        0.51353553
C        4.79706460        6.54979290        1.35940470
C        4.05035920        7.58139810        9.28313340
C        4.85832020        8.38285290       10.17615100
C        2.20027890        5.77132220        2.21086780
C        3.11286210        6.67043330        3.07091400
C        2.25476910        7.55651830        3.94610460
C        3.14207840        8.44972940        4.90577080
C        4.09414400        5.84098820        3.98419520
C        4.91632460        6.63257110        4.87785680
C        3.92621360        7.56675130        2.21855780
C        4.87260710        8.41462660        3.10551700
C        2.21795770        5.75868120        5.68390630
C        3.12105060        6.65944680        6.63330610
C        2.20207080        7.51269970        7.59302220
C        3.17789400        8.40461650        8.41916740
C        3.98986530        5.81449270        7.55672020
C        4.81262520        6.68189730        8.51555040
C        3.98951510        7.57961710        5.78347930
C        4.90369580        8.50054090        6.61161070
C        5.79185210        9.28934130        9.32035080
C        6.65511650       10.17961100       10.21711800
C        5.67951860        0.42127504        0.45641435
C        6.70288580        1.34971960        1.29991370
C        7.54553320        9.32703350        0.44792815
C        8.48552850       10.22380900        1.28672450
C        7.54539800        0.42064634        9.35076350
C        8.35650440        1.27108190       10.25066800
C        5.80280840        9.32565460        2.19521490
C        6.72299930       10.23762200        3.06093350
C        5.77905020        0.44487265        3.93687720
C        6.60730130        1.32878790        4.92123970
C        7.48285750        9.34541060        3.99345440
C        8.47043740       10.22156200        4.89234540
C        7.61516690        0.42078210        2.21447490
C        8.47684240        1.36565890        3.11850310
C        5.77840540        9.41741840        5.74854560
C        6.65033380       10.16580200        6.64281180
C        5.75486210        0.34714674        7.54432660
C        6.62002820        1.28513170        8.49996740
C        7.61954880        9.36019620        7.59399300
C        8.45315820       10.19971900        8.49233350
C        7.50408370        0.43563002        5.73580150
C        8.35757980        1.32550790        6.68279760
C        5.74257600        2.21957190        9.33600130
C        6.66241290        3.07726510       10.19047200
C        5.78832320        3.95310130        0.34962667
C        6.66870760        4.88932610        1.26981420
C        7.53934950        2.27685280        0.45500418
C        8.41734230        3.15269330        1.32368970
C        7.53817690        3.96444050        9.35724860
C        8.43119090        4.80248150       10.19563300
C        5.67946440        2.21954280        2.21118570
C        6.57084440        3.02989220        3.14341240
C        7.49856640        2.20165010        4.01276770
C        8.37656190        3.13708290        4.92470730
C        7.49726090        3.97676480        2.22995610
C        8.40353870        4.87624730        3.05610380
C        5.66448850        2.18688030        5.76257840
C        6.67500820        3.19451140        6.57106910
C        5.75681330        4.02020750        7.54943770
C        6.63588710        4.93200140        8.40586380
C        7.50629430        2.21627290        7.58504720
C        8.41027420        3.03887370        8.42468090
C        7.57121920        4.00334540        5.80337030
C        8.43100090        4.89175630        6.64454810
C        5.68597530        5.73678130        9.33896520
C        6.64388910        6.65858240       10.18905500
C        5.75638140        7.47112240        0.43296011
C        6.68560310        8.44068250        1.29962020
C        7.50460900        5.68306680        0.48270257
C        8.50179770        6.65052440        1.31990320
C        7.47690360        7.55549090        9.33992890
C        8.40508470        8.41899830       10.18854400
C        5.75607970        5.74693800        2.22281790
C        6.62408290        6.65606580        3.16423750
C        5.82529100        7.55296820        3.98070650
C        6.66486880        8.44797580        4.91854530
C        7.58721660        5.82379500        3.90415600
C        8.45077040        6.70533130        4.83570570
C        7.47950260        7.58377460        2.24714730
C        8.47216880        8.47171980        3.10632350
C        5.77823680        5.86174710        5.74521170
C        6.67119650        6.68450090        6.60457840
C        5.78499880        7.51610060        7.54067070
C        6.67869660        8.34041360        8.45257030
C        7.56813360        5.77681030        7.57152920
C        8.39811900        6.71564540        8.49200470
C        7.54794740        7.58422220        5.71648700
C        8.45425160        8.42913260        6.70121360
N        5.70477250        3.91139630        3.90734970
