&CONTROL
calculation = 'scf'
restart_mode = 'from_scratch'
verbosity = 'high'
wf_collect = .true.
pseudo_dir='/home/arpank/pseudopotentials/'
tprnfor = .true.
/
&SYSTEM
ibrav = 0
ecutwfc = 60
tot_charge = -1
nspin = 2
tot_magnetization = 2.0
nbnd = 480
nat = 215
ntyp = 2
input_dft = 'PBE0'
exx_fraction = 0.18
ecutfock = 120
/
&ELECTRONS
conv_thr = 1D-8
diago_full_acc=.true.
mixing_beta = 0.3
/
&IONS
ion_dynamics='bfgs'
ion_positions='default'
/
K_POINTS gamma
ATOMIC_SPECIES
C  12.01099968  C_ONCV_PBE-1.0.upf
N  14.00699997  N_ONCV_PBE-1.0.upf
CELL_PARAMETERS angstrom
    10.65000000      0.00000000      0.00000000
     0.00000000     10.65000000      0.00000000
     0.00000000      0.00000000     10.65000000
ATOMIC_POSITIONS angstrom
C        9.36488780        9.33937320        9.39307880
C       10.31135300       10.27609300       10.24156200
C        9.33545960        0.38987775        0.51314775
C       10.19003900        1.38177120        1.32428230
C        0.43407427        9.33784190        0.42432128
C        1.33231000       10.14157300        1.34644260
C        0.36738230        0.50317387        9.29534390
C        1.25749320        1.32314070       10.13419100
C        9.33380310        9.27875090        2.15686480
C       10.11761100       10.17734500        3.14035890
C        9.27611290        0.39183626        4.02286130
C       10.23055500        1.33555020        4.83488850
C        0.45100196        9.35175530        3.95301190
C        1.32416440       10.20194000        4.84269250
C        0.41955425        0.44506687        2.16606330
C        1.36103320        1.26392930        3.07552430
C        9.29693740        9.24994060        5.74757840
C       10.21415800       10.22358200        6.71641090
C        9.26755410        0.39949894        7.55362520
C       10.15186200        1.30842520        8.39766670
C        0.38572873        9.30975620        7.62499180
C        1.32142260       10.20982800        8.47098450
C        0.47076945        0.49258721        5.78005850
C        1.33319830        1.36278320        6.71279100
C        9.24580690        2.13777180        9.34357270
C       10.12632600        3.09635920       10.19431200
C        9.29025780        3.98023660        0.40101912
C       10.24604100        4.96508170        1.34331590
C        0.37580258        2.20588950        0.43265447
C        1.28903780        3.07092840        1.34350010
C        0.43559906        3.96725850        9.36782020
C        1.33594770        4.79194550       10.11096500
C        9.27964440        2.23274820        2.22387770
C       10.18882900        3.11620090        3.10287960
C        9.32972040        3.98314130        3.97115570
C       10.25726500        4.83097250        4.84982300
C        0.49104371        2.22993670        3.99561340
C        1.37335450        3.08668180        4.87740680
C        0.41693933        4.00406120        2.20944720
C        1.35164990        4.81019510        3.04537360
C        9.27969170        2.20109030        5.72151240
C       10.19875200        3.07383130        6.63196390
C        9.36596590        3.98949330        7.56783040
C       10.17875400        4.89112920        8.43597020
C        0.43705420        2.18635610        7.56009440
C        1.31867870        3.10312360        8.43923400
C        0.50165621        4.00443830        5.74126350
C        1.31399920        4.90391630        6.61769440
C        9.33700800        5.75063680        9.32395030
C       10.26361100        6.59898810       10.22721600
C        9.31214720        7.52776680        0.40071004
C       10.22129500        8.40307730        1.33319730
C        0.44053408        5.73244340        0.40131698
C        1.32487940        6.66829220        1.33809720
C        0.49603901        7.54153020        9.27259220
C        1.30618730        8.49203750       10.20097400
C        9.36779790        5.85818270        2.21211310
C       10.22261400        6.63293420        3.07891220
C        9.31228240        7.60179260        4.05776740
C       10.19945200        8.42396850        4.89851680
C        0.54273385        5.74959080        4.01956870
C        1.39027900        6.68585360        4.88078510
C        0.49264435        7.50228490        2.17249380
C        1.43214780        8.30962330        3.08681120
C        9.33202780        5.76642980        5.72191430
C       10.24619200        6.73873020        6.59794270
C        9.34958710        7.49111470        7.52556280
C       10.19059400        8.44365050        8.45195380
C        0.48430107        5.74174580        7.57508860
C        1.34458770        6.64641920        8.39760270
C        0.50107181        7.59381130        5.79505890
C        1.30906520        8.40757870        6.77369220
C        2.20464780        9.37726510        9.28455920
C        3.06864000       10.25177500       10.21332000
C        2.27817050        0.49841359        0.43138955
C        3.13903410        1.35702700        1.33522780
C        3.95664380        9.33192710        0.48528559
C        4.92465210       10.26896300        1.29802650
C        3.99144350        0.43008403        9.38133220
C        4.90144950        1.31594750       10.20234200
C        2.23422680        9.25479060        2.18877510
C        3.11634910       10.27059600        3.12343310
C        2.27816590        0.44718856        4.01398890
C        3.10719610        1.34771340        4.87081770
C        4.08842840        9.35248330        3.93192750
C        4.92330900       10.23716600        4.84847190
C        4.02339430        0.42813332        2.21399260
C        4.86769250        1.35035050        3.11615830
C        2.19640720        9.33494610        5.79367250
C        3.07184280       10.22953300        6.64360290
C        2.16755880        0.48763388        7.52526070
C        3.03512390        1.40618010        8.47835380
C        3.98806610        9.35084730        7.54463650
C        4.84959620       10.21470300        8.40867520
C        4.00459250        0.40170769        5.84549850
C        4.91732320        1.31726630        6.67975150
C        2.24829980        2.35661680        9.29141180
C        3.24841920        3.03865810       10.23516600
C        2.24594260        3.89595760        0.45734085
C        3.05003550        4.82437660        1.29052920
C        4.00263720        2.23475690        0.46352747
C        4.94589940        3.08154240        1.23328520
C        3.96581540        4.01056930        9.31088490
C        4.86361540        4.91179400       10.18544200
C        2.20795690        2.16469550        2.24003720
C        3.04374590        3.10687180        3.09392110
C        2.25104980        3.96017820        4.00971050
C        3.17345790        4.83516530        4.91098360
C        3.98563160        2.20447450        4.04761880
C        4.85268790        3.21839470        4.86888980
C        4.02311820        4.03942080        2.18951860
C        4.86966610        4.84618530        3.07075110
C        2.15060040        2.23853380        5.65892940
C        3.00212510        3.14860960        6.60396210
C        2.18902260        4.02906920        7.54128050
C        3.11418410        4.81556680        8.44344300
C        3.95188750        2.26477520        7.58419530
C        4.85295620        3.08383430        8.47703470
C        4.02254740        4.08250530        5.76106060
C        4.88069800        4.88543200        6.66824280
C        2.15401800        5.70998780        9.25191590
C        3.14006200        6.69929680       10.21454400
C        2.23241430        7.57614750        0.38596795
C        3.13099150        8.41718440        1.35552180
C        4.03317290        5.73280420        0.40735708
C        4.86769550        6.69942180        1.32310580
C        3.96278230        7.62214150        9.30562730
C        4.84454370        8.37342370       10.20748100
C        2.24270890        5.86167270        2.21616380
C        3.12000580        6.68508960        3.14895700
C        2.28305800        7.51996900        4.01914710
C        3.09843910        8.46619280        4.91863020
C        3.98586960        5.69886620        3.98079530
C        4.92559530        6.61621200        4.87562900
C        3.98796570        7.50999400        2.20867680
C        4.91105550        8.40809800        3.08214280
C        2.24582480        5.72889570        5.76384990
C        3.12136090        6.66789000        6.72758000
C        2.19957480        7.52040920        7.55987220
C        3.07517260        8.45579890        8.45842170
C        4.01055920        5.74459300        7.58613520
C        4.84670260        6.64360440        8.44632090
C        3.99793620        7.57404740        5.79887020
C        4.82017270        8.40099340        6.71989950
C        5.73776580        9.29089380        9.30437300
C        6.68118450       10.14393600       10.24637600
C        5.73804750        0.36478750        0.37758860
C        6.68536300        1.35320190        1.34921930
C        7.52081370        9.29821040        0.40721700
C        8.40918270       10.23474200        1.36404640
C        7.51040230        0.43282022        9.33024860
C        8.43303670        1.37055820       10.26943100
C        5.78167680        9.37918240        2.24797260
C        6.64531040       10.27058700        3.14172570
C        5.80531260        0.50406900        3.98718500
C        6.65314000        1.37977400        4.85715770
C        7.50911910        9.32389350        4.01256260
C        8.43780560       10.15016200        4.89555460
C        7.59866420        0.49143052        2.19382760
C        8.48312480        1.33620360        3.08702650
C        5.74923420        9.30828740        5.83501170
C        6.71068490       10.22244000        6.70902510
C        5.73433370        0.42462711        7.64083290
C        6.55409810        1.30503350        8.42340700
C        7.52773300        9.29003170        7.58054390
C        8.46506860       10.19180500        8.41707360
C        7.51661800        0.39341982        5.85847720
C        8.41134140        1.31845390        6.57487200
C        5.76456640        2.14629620        9.31171160
C        6.62394460        3.10170960       10.17298600
C        5.80077180        3.98606900        0.42746784
C        6.72075290        4.80925190        1.33770230
C        7.58999470        2.19872630        0.39516628
C        8.38364030        3.07103680        1.32593310
C        7.53755170        3.99201800        9.21885280
C        8.45786640        4.82032480       10.23469100
C        5.81961280        2.25349960        2.20603500
C        6.61026930        3.12781260        3.13019200
C        7.54040800        2.20775950        3.92833450
C        8.42077380        3.13326040        4.85990500
C        7.49747560        4.02795820        2.26375050
C        8.43940280        4.89495190        3.12136670
C        5.79470210        2.31908650        5.75416820
C        6.62081620        3.17170870        6.67844530
C        5.76127810        4.07409650        7.55320110
C        6.64974520        4.94761710        8.50094230
C        7.46083210        2.24047590        7.46761210
C        8.42685120        3.10331780        8.38279500
C        7.53269960        3.96225040        5.81119930
C        8.42278960        4.84036860        6.62915260
C        5.77657010        5.76135540        9.37258730
C        6.65750220        6.66716860       10.25342800
C        5.77362110        7.53863120        0.41162637
C        6.58449180        8.46593490        1.37438770
C        7.55584970        5.74728060        0.44169989
C        8.37718590        6.65972130        1.37390260
C        7.58288570        7.49193260        9.27750360
C        8.45375740        8.41119910       10.17889600
C        5.84305490        5.76637640        2.23512200
C        6.65074230        6.64023100        3.15956190
C        5.71143660        7.52672910        4.00886430
C        6.67174970        8.39495940        4.90676310
C        7.66651000        5.79555340        3.91184130
C        8.42154030        6.63098130        4.88432060
C        7.48765650        7.59557190        2.24886290
C        8.40422510        8.43028010        3.19879670
C        5.80182900        5.80955870        5.77233800
C        6.68367840        6.64907230        6.62677570
C        5.80164630        7.54011220        7.52459500
C        6.58817160        8.45300200        8.48496450
C        7.55018470        5.79395370        7.55326070
C        8.40338480        6.70687750        8.41409240
C        7.54164820        7.49640990        5.74267760
C        8.41098980        8.36212800        6.58857540
N        5.66114220        4.01642960        3.94460360
