&CONTROL
calculation = 'scf'
restart_mode = 'from_scratch'
verbosity = 'high'
wf_collect = .true.
pseudo_dir='/home/arpank/pseudopotentials/'
tprnfor = .true.
/
&SYSTEM
ibrav = 0
ecutwfc = 60
tot_charge = -1
nspin = 2
tot_magnetization = 2.0
nbnd = 480
nat = 215
ntyp = 2
input_dft = 'PBE0'
exx_fraction = 0.18
ecutfock = 120
/
&ELECTRONS
conv_thr = 1D-8
diago_full_acc=.true.
mixing_beta = 0.3
/
&IONS
ion_dynamics='bfgs'
ion_positions='default'
/
K_POINTS gamma
ATOMIC_SPECIES
C  12.01099968  C_ONCV_PBE-1.0.upf
N  14.00699997  N_ONCV_PBE-1.0.upf
CELL_PARAMETERS angstrom
    10.65000000      0.00000000      0.00000000
     0.00000000     10.65000000      0.00000000
     0.00000000      0.00000000     10.65000000
ATOMIC_POSITIONS angstrom
C        9.36816730        9.35901900        9.31228400
C       10.16475300       10.20871300       10.24411000
C        9.20499430        0.43147081        0.47166512
C       10.16373900        1.31526480        1.25700450
C        0.44697022        9.32490030        0.42644822
C        1.36205420       10.23238000        1.26313220
C        0.43670200        0.39937712        9.32148630
C        1.39037700        1.35239310       10.23629100
C        9.36764100        9.35190990        2.23700960
C       10.14841500       10.21589900        3.13749500
C        9.25498280        0.47698634        4.02760120
C       10.21992900        1.34154690        4.88653210
C        0.49483870        9.35414670        3.98286300
C        1.35612120       10.21780100        4.90731470
C        0.39078434        0.44432984        2.20264070
C        1.25966390        1.36173010        3.06589190
C        9.28812270        9.33717030        5.73806300
C       10.10605900       10.18724900        6.65533250
C        9.32774040        0.46696651        7.43869700
C       10.21245500        1.35808110        8.44953630
C        0.38247188        9.33885840        7.55894430
C        1.33196820       10.25322200        8.48707050
C        0.43517399        0.40594071        5.74648940
C        1.36556410        1.31551470        6.72187100
C        9.30018590        2.20954020        9.21811800
C       10.14628500        3.07881880       10.24205300
C        9.30246390        4.00601850        0.36664850
C       10.25109500        4.86765100        1.29266310
C        0.41697830        2.19869760        0.46978358
C        1.29737510        3.10107240        1.31175460
C        0.50623249        3.93100560        9.34300080
C        1.42164920        4.89844500       10.19332100
C        9.27982180        2.23291400        2.24168950
C       10.25087000        3.12060490        3.07168460
C        9.33749580        3.92830970        4.01495700
C       10.23612500        4.90876750        4.84167330
C        0.46769222        2.20268920        3.97471680
C        1.36418870        3.05108290        4.97796630
C        0.40146661        3.92580750        2.21577130
C        1.25484050        4.83427490        3.16112670
C        9.34993500        2.15306930        5.79504980
C       10.20510600        3.08767060        6.65452950
C        9.30058400        3.96228590        7.57731150
C       10.22556500        4.81066210        8.39254920
C        0.55512849        2.24718020        7.55162370
C        1.37024770        3.14666340        8.50108280
C        0.42552721        3.99388380        5.80140380
C        1.25085530        4.95035530        6.70600860
C        9.37225470        5.71880100        9.37084950
C       10.24158400        6.65999370       10.21395300
C        9.30137480        7.52995570        0.39386981
C       10.27468300        8.48536690        1.33079770
C        0.40928065        5.81148560        0.49780405
C        1.32437420        6.61898750        1.35256090
C        0.46709677        7.47060130        9.37171270
C        1.34783380        8.48950000       10.26827600
C        9.33517660        5.68486880        2.21123960
C       10.21403200        6.64318170        3.14326060
C        9.31634620        7.54119890        3.92375500
C       10.18926000        8.45863650        4.86761910
C        0.48964039        5.77116340        3.98480140
C        1.29814380        6.70516900        4.90270950
C        0.39232215        7.48901280        2.21145820
C        1.35511730        8.45719650        3.09097380
C        9.21816010        5.76504600        5.84231090
C       10.25049600        6.64790820        6.64375360
C        9.39134020        7.56047890        7.55502090
C       10.23997500        8.38095650        8.44428920
C        0.45186745        5.81042470        7.58070030
C        1.37414360        6.65426430        8.47136140
C        0.39169829        7.55842380        5.80647690
C        1.31426910        8.38673800        6.68373160
C        2.26441800        9.40382510        9.36593770
C        3.13350910       10.25083100       10.18882900
C        2.27306710        0.47320763        0.37154523
C        3.00194340        1.41049840        1.35832590
C        3.97895330        9.31272680        0.38391012
C        4.91006280       10.23125500        1.23052290
C        4.02818330        0.40433666        9.17692540
C        4.86245860        1.36098820       10.15790000
C        2.20375770        9.30481430        2.16461630
C        3.09062460       10.22025600        3.02371730
C        2.19150760        0.46460081        3.98718980
C        3.12782740        1.31138510        4.87000500
C        3.99404380        9.32012810        3.93237010
C        4.93536970       10.21349300        4.85218070
C        4.01316020        0.48484417        2.26972960
C        4.92472330        1.34544140        3.15665180
C        2.16353240        9.36933890        5.77875420
C        3.07778960       10.27941500        6.67444870
C        2.25537420        0.47714809        7.57470820
C        3.18150350        1.39764810        8.39341610
C        3.95707860        9.32230340        7.49833900
C        4.92795640       10.19708100        8.33654360
C        3.99560250        0.43076984        5.79593470
C        4.93386690        1.28165770        6.61673270
C        2.21961630        2.26605480        9.35245310
C        3.07821990        3.06605210       10.23973600
C        2.19972140        4.03071560        0.49371074
C        3.11965950        4.93972590        1.36625290
C        4.03023580        2.20851270        0.44508881
C        4.85812240        3.12171520        1.31587990
C        3.95588280        3.98282960        9.35544710
C        4.87235880        4.92307690       10.24611900
C        2.20762760        2.26767980        2.18744650
C        3.11335270        3.10453500        3.07207060
C        2.23428690        3.91087660        3.99619710
C        3.08887450        4.89853910        4.85896520
C        3.95953500        2.15656090        4.06282710
C        4.85164790        3.04532240        4.80141090
C        4.02809460        3.96582680        2.18367470
C        4.87285660        4.83063180        3.15663100
C        2.23737650        2.24754290        5.78235260
C        3.09655070        3.09087150        6.59611910
C        2.21475000        3.87405350        7.55279200
C        3.08394960        4.82072190        8.46047960
C        4.01796490        2.24206100        7.51231300
C        4.88221720        3.11180250        8.44120100
C        3.87297480        3.97953070        5.72858380
C        4.90879730        4.90788270        6.63958420
C        2.31003510        5.76592250        9.35240330
C        3.10845020        6.64958650       10.20785700
C        2.24848810        7.57512990        0.50747568
C        3.03795930        8.44845630        1.24553260
C        4.00728170        5.74361560        0.48158413
C        4.93233360        6.70767090        1.33979610
C        3.92614110        7.60144880        9.30732560
C        4.88478960        8.48595750       10.22158000
C        2.23787330        5.73954730        2.25206450
C        3.09567860        6.65095970        3.07532430
C        2.25982330        7.59588280        3.97020380
C        3.08011020        8.53892770        4.82482320
C        3.97838080        5.79309550        4.00677270
C        4.95917980        6.61911760        4.89548320
C        4.01484660        7.55818620        2.24584240
C        4.85642050        8.38335890        3.07265750
C        2.17373820        5.81389750        5.77290540
C        3.15310920        6.68798820        6.65759570
C        2.23394460        7.56385550        7.64099960
C        3.07079570        8.49096780        8.42580050
C        3.94752670        5.83731230        7.56888880
C        4.89789800        6.66888270        8.42351270
C        4.00589390        7.53429550        5.76292220
C        4.87060910        8.47907980        6.65758170
C        5.80046590        9.31685360        9.33430410
C        6.68083780       10.21146500       10.12731700
C        5.83891650        0.40803334        0.40303874
C        6.67383560        1.29558680        1.30843340
C        7.59280950        9.32951390        0.45050526
C        8.47324560       10.17920600        1.33156390
C        7.56639090        0.49386741        9.29285930
C        8.37736200        1.37585380       10.21648900
C        5.76275020        9.24674250        2.16605490
C        6.63848150       10.18816800        3.11587750
C        5.76762320        0.36212517        4.00445700
C        6.74008020        1.35437950        4.87522250
C        7.50508430        9.34813930        4.07181440
C        8.41985200       10.14290500        4.89470970
C        7.57856160        0.38053701        2.25122340
C        8.37739170        1.30270670        3.13129490
C        5.79890900        9.28015960        5.78336790
C        6.68222460       10.19305900        6.63804530
C        5.72459280        0.48566710        7.47556930
C        6.70229550        1.29412440        8.45809820
C        7.59518000        9.30285360        7.52123090
C        8.44765090       10.19843700        8.39134700
C        7.58556560        0.40264103        5.78825120
C        8.47292330        1.31499000        6.65985530
C        5.77656810        2.33113870        9.30819070
C        6.63147290        3.09927590       10.20172200
C        5.81517900        4.03964980        0.50987143
C        6.65762340        4.95067690        1.33776610
C        7.45742480        2.21843450        0.43276032
C        8.44244800        3.02250530        1.28187810
C        7.53785420        3.97627600        9.30617270
C        8.42498020        4.86341890       10.16511800
C        5.74031390        2.14623650        2.21990720
C        6.61141110        3.07578170        3.10066570
C        7.58391470        2.19687650        3.96027960
C        8.45019470        3.03250880        4.92022540
C        7.46547400        4.00066310        2.25175200
C        8.44512890        4.79999800        3.12666440
C        5.82775340        2.24766190        5.75829580
C        6.67022740        3.12000130        6.70181860
C        5.68695240        4.02210630        7.54300200
C        6.62412740        4.85370050        8.45506380
C        7.53950050        2.20587450        7.53152340
C        8.37211780        3.05859350        8.37338070
C        7.59409960        3.91354350        5.79932020
C        8.34322170        4.89170250        6.65481910
C        5.76241790        5.79203670        9.37244220
C        6.63600900        6.66520190       10.20745200
C        5.76540010        7.57590790        0.51786652
C        6.64611890        8.42843200        1.35985880
C        7.55474180        5.75127560        0.39668150
C        8.49203680        6.63360420        1.30828290
C        7.57054780        7.55474870        9.32748180
C        8.42690160        8.38528020       10.24991700
C        5.75428210        5.78118020        2.22392650
C        6.71113150        6.66088940        3.11561280
C        5.77711850        7.54050210        3.92568240
C        6.61320470        8.41514520        4.81945070
C        7.57654060        5.82206010        4.02063300
C        8.36146190        6.61423940        4.95792060
C        7.52259780        7.54619200        2.21844710
C        8.46942610        8.49275820        3.10495710
C        5.68534410        5.80478260        5.77370970
C        6.59282240        6.63412860        6.71280360
C        5.78124690        7.63204800        7.57621090
C        6.64306580        8.47320510        8.48642900
C        7.52039340        5.76308040        7.49220880
C        8.44071440        6.63199090        8.46515360
C        7.53832310        7.55865340        5.69365010
C        8.42911390        8.40051830        6.58964450
N        5.68941180        3.89531310        3.97922290
