&CONTROL
calculation = 'scf'
restart_mode = 'from_scratch'
verbosity = 'high'
wf_collect = .true.
pseudo_dir='/home/arpank/pseudopotentials/'
tprnfor = .true.
/
&SYSTEM
ibrav = 0
ecutwfc = 60
tot_charge = -1
nspin = 2
tot_magnetization = 2.0
nbnd = 480
nat = 215
ntyp = 2
input_dft = 'PBE0'
exx_fraction = 0.18
ecutfock = 120
/
&ELECTRONS
conv_thr = 1D-8
diago_full_acc=.true.
mixing_beta = 0.3
/
&IONS
ion_dynamics='bfgs'
ion_positions='default'
/
K_POINTS gamma
ATOMIC_SPECIES
C  12.01099968  C_ONCV_PBE-1.0.upf
N  14.00699997  N_ONCV_PBE-1.0.upf
CELL_PARAMETERS angstrom
    10.65000000      0.00000000      0.00000000
     0.00000000     10.65000000      0.00000000
     0.00000000      0.00000000     10.65000000
ATOMIC_POSITIONS angstrom
C        9.29473790        9.26567810        9.30480940
C       10.17515600       10.21454600       10.13032400
C        9.27692010        0.45779697        0.42379877
C       10.22582600        1.29873840        1.27493740
C        0.37512268        9.30598190        0.41627334
C        1.33506350       10.20855800        1.26295100
C        0.45774047        0.42201419        9.36812730
C        1.38313890        1.37204540       10.21774300
C        9.34662920        9.29828520        2.23680330
C       10.23174200       10.19159100        3.03744900
C        9.30248770        0.47497380        3.96020210
C       10.22243500        1.32358460        4.89071210
C        0.41707202        9.35566940        4.02504940
C        1.35228520       10.20805000        4.84067030
C        0.46393019        0.32919931        2.21424610
C        1.31838030        1.33799660        3.17259010
C        9.32593420        9.29731640        5.75255550
C       10.19444300       10.21300900        6.71274770
C        9.34332190        0.50458125        7.53646650
C       10.20761000        1.37130810        8.51267870
C        0.42589647        9.27632880        7.47752590
C        1.34004970       10.21085200        8.36919110
C        0.46849504        0.39755444        5.69414290
C        1.34548570        1.36197240        6.60640920
C        9.34185970        2.29986970        9.39468940
C       10.16382000        3.12733290       10.27141900
C        9.30102110        3.98995800        0.49943794
C       10.20450500        4.90216570        1.30685870
C        0.37845455        2.16749540        0.46765805
C        1.36266480        3.05202850        1.29202470
C        0.46811719        3.95274000        9.42358160
C        1.28259740        4.88313750       10.20482000
C        9.36754470        2.22832190        2.20269430
C       10.22137200        3.03291830        3.12790270
C        9.37235190        4.00728500        4.01788390
C       10.22701200        4.86084210        4.85706660
C        0.47271781        2.17455430        4.04773110
C        1.41247160        3.09970530        4.81436630
C        0.46559453        3.96108120        2.21866690
C        1.39217820        4.91402270        3.09654930
C        9.31817250        2.23655720        5.75145430
C       10.18427400        3.09894970        6.63481020
C        9.36312750        3.99314550        7.59231200
C       10.17861500        4.91548450        8.49275830
C        0.47283716        2.20633850        7.62355580
C        1.36004810        3.18960160        8.49732130
C        0.48820948        3.97060200        5.80395580
C        1.33989110        4.81578330        6.69381540
C        9.29496860        5.72942200        9.34623750
C       10.13601600        6.60496430       10.27301500
C        9.27232700        7.53730090        0.47163148
C       10.19838000        8.41534340        1.39369080
C        0.48107189        5.74071020        0.45641155
C        1.33245980        6.67473420        1.33836590
C        0.48912362        7.47840910        9.33234930
C        1.22983520        8.45212770       10.21266700
C        9.38942630        5.74567930        2.16909770
C       10.21555900        6.65023400        3.14005520
C        9.32469090        7.53656900        3.97961670
C       10.26846200        8.52185790        4.95325400
C        0.46200571        5.74878220        4.03741630
C        1.34442870        6.64318070        4.95981820
C        0.42949497        7.53775570        2.32562280
C        1.33781790        8.48627730        3.07335370
C        9.35355250        5.74822720        5.80458390
C       10.21134900        6.68057200        6.67864200
C        9.33675580        7.55451420        7.56093200
C       10.17756100        8.42182850        8.45998990
C        0.35506881        5.74658920        7.54214890
C        1.22273890        6.61761090        8.40234060
C        0.41817585        7.58354660        5.79915450
C        1.33862250        8.46444810        6.62361720
C        2.19381200        9.32601000        9.28373370
C        3.11171930       10.21578800       10.17627700
C        2.31933920        0.41418121        0.39662272
C        3.09541270        1.37973930        1.35597290
C        4.03573550        9.39515900        0.47697968
C        4.89268560       10.31913000        1.34574820
C        3.99463020        0.47402179        9.34426740
C        4.91479030        1.30770580       10.18947200
C        2.24184640        9.27161220        2.19414320
C        3.05122090       10.18890100        3.01907670
C        2.31045620        0.43317896        3.96359240
C        3.12854810        1.30465140        4.86609980
C        4.09223980        9.30647220        4.01207190
C        4.91247220       10.22505400        4.85387100
C        3.96518400        0.45697489        2.18997460
C        4.88872650        1.35429790        3.07780410
C        2.25878030        9.31355720        5.75114680
C        3.15580840       10.20920100        6.63323250
C        2.24308130        0.48905070        7.53732730
C        3.13410370        1.33034810        8.35229270
C        3.95589420        9.30406500        7.49089790
C        4.87127820       10.25778100        8.45465660
C        3.97369600        0.50077640        5.79588340
C        4.82443830        1.30731660        6.69407600
C        2.24387740        2.29706670        9.23034560
C        3.08710800        3.10004210       10.24801600
C        2.23496400        4.01084430        0.47539629
C        3.07802660        4.90896900        1.35695610
C        4.03563550        2.23211620        0.52757989
C        4.83635420        3.14074460        1.34617500
C        4.08535830        3.97440070        9.38284540
C        4.89203530        4.85529730       10.25297700
C        2.20632230        2.20457750        2.18245640
C        3.04467990        3.09721700        3.06600460
C        2.28370270        4.02704770        3.92911420
C        3.08420820        4.89020050        4.86865750
C        3.93010250        2.19214760        3.97622290
C        4.88349270        3.13599570        4.78239120
C        3.99024510        4.00805590        2.15074510
C        4.88192020        4.87927660        3.05501540
C        2.27343650        2.20884280        5.72917030
C        3.08412600        3.13015570        6.65313420
C        2.28601710        4.02081420        7.54456860
C        3.10778750        4.92762400        8.48800130
C        4.00417010        2.28641510        7.56494620
C        4.92607640        3.14525810        8.44845800
C        3.98332650        3.95930080        5.75759170
C        4.87439320        4.91103010        6.66455490
C        2.12013430        5.78367720        9.32479760
C        3.04030000        6.70011010       10.08506300
C        2.24726480        7.63147470        0.46063897
C        3.10859590        8.43814840        1.35839590
C        4.06920260        5.81812640        0.42733790
C        4.92998340        6.63498570        1.34046660
C        3.92993230        7.51182920        9.24171910
C        4.90884780        8.40554960       10.23079700
C        2.25915530        5.82177050        2.17921420
C        3.11210860        6.72017480        3.08571550
C        2.21712760        7.58630650        4.05647250
C        3.12916050        8.44280580        4.82390510
C        4.05183330        5.75341790        3.88985440
C        4.94224660        6.61224120        4.82643880
C        3.99915580        7.56909650        2.21260140
C        4.91536740        8.45227940        3.22514390
C        2.18687220        5.77116790        5.75315500
C        3.06832870        6.68914460        6.63585300
C        2.17858320        7.55302370        7.55677830
C        3.06351640        8.39567720        8.43814120
C        4.04791300        5.84645350        7.61456520
C        4.82399880        6.62358750        8.42536150
C        3.93734810        7.47327430        5.76077390
C        4.89774790        8.40097370        6.62072480
C        5.76172850        9.37529330        9.38284730
C        6.62802870       10.19794700       10.13068200
C        5.77217500        0.53782296        0.36052914
C        6.64778650        1.32035090        1.30049630
C        7.52211710        9.40435180        0.41270883
C        8.36937580       10.18456300        1.33524220
C        7.55239970        0.41202392        9.31885110
C        8.48759290        1.32262620       10.18304200
C        5.80813250        9.28163920        2.27194190
C        6.63131680       10.21608100        3.16222160
C        5.76516480        0.40925328        3.98140260
C        6.64097400        1.29546940        4.86524140
C        7.58897260        9.35787380        4.02027260
C        8.48000430       10.20121300        4.86721880
C        7.59123230        0.45627591        2.17891260
C        8.43760300        1.32327740        3.09424820
C        5.78327600        9.26174070        5.80647110
C        6.71479300       10.16017900        6.63848480
C        5.74963480        0.45653798        7.55405900
C        6.62767310        1.32164360        8.43495740
C        7.52727590        9.32135030        7.62559920
C        8.41687700       10.17907400        8.42093510
C        7.49668680        0.45578123        5.76265060
C        8.40725430        1.26212650        6.63414430
C        5.74245380        2.23986720        9.25768930
C        6.65769480        3.05638050       10.25564900
C        5.71342790        3.90464730        0.37930594
C        6.70679290        4.80783950        1.33083850
C        7.53416380        2.21885380        0.45328982
C        8.41474410        3.09141090        1.34845420
C        7.48109120        3.96066700        9.37466300
C        8.44786230        4.85438190       10.24873900
C        5.78179520        2.15920060        2.18914990
C        6.62848360        3.13383540        3.11777090
C        7.59990560        2.21553370        4.02131670
C        8.45550550        3.15454770        4.90026670
C        7.51535670        3.95589920        2.22230360
C        8.46828180        4.89587400        3.09328730
C        5.72873960        2.28043320        5.75171270
C        6.58141440        3.19418960        6.61458100
C        5.74760940        3.94199650        7.53030080
C        6.58726440        4.87022560        8.43181790
C        7.52456260        2.20052590        7.52038950
C        8.41439030        3.10845530        8.44371110
C        7.57855260        3.97095200        5.87670990
C        8.40870530        4.87022080        6.70946460
C        5.79377550        5.72056290        9.34202720
C        6.62896360        6.62771030       10.25418600
C        5.73296380        7.53543090        0.42053679
C        6.59549750        8.43156890        1.23034060
C        7.50978570        5.71995530        0.46899547
C        8.37358990        6.66893860        1.35478620
C        7.49557250        7.56468730        9.38666790
C        8.42419650        8.42883110       10.19450800
C        5.76621560        5.75891660        2.17307170
C        6.67268160        6.60387470        3.12903720
C        5.81677670        7.53114000        4.08548900
C        6.68415100        8.34893340        4.97960900
C        7.60619250        5.83700570        3.91427710
C        8.43170650        6.73377330        4.84618410
C        7.49006420        7.55804130        2.14197140
C        8.48737430        8.40922570        3.11487940
C        5.66489640        5.73031120        5.83004740
C        6.60335160        6.63402230        6.64394180
C        5.73385890        7.49831590        7.51615330
C        6.54162080        8.50934880        8.46423430
C        7.55010670        5.76633620        7.51874880
C        8.41764950        6.63751970        8.37161710
C        7.56128070        7.55473420        5.79800410
C        8.45231910        8.46376780        6.63101040
N        5.70093620        3.88598740        3.88103430
