&CONTROL
calculation = 'scf'
restart_mode = 'from_scratch'
verbosity = 'high'
wf_collect = .true.
pseudo_dir='/home/arpank/pseudopotentials/'
tprnfor = .true.
/
&SYSTEM
ibrav = 0
ecutwfc = 60
tot_charge = -1
nspin = 2
tot_magnetization = 2.0
nbnd = 480
nat = 215
ntyp = 2
input_dft = 'PBE0'
exx_fraction = 0.18
ecutfock = 120
/
&ELECTRONS
conv_thr = 1D-8
diago_full_acc=.true.
mixing_beta = 0.3
/
&IONS
ion_dynamics='bfgs'
ion_positions='default'
/
K_POINTS gamma
ATOMIC_SPECIES
C  12.01099968  C_ONCV_PBE-1.0.upf
N  14.00699997  N_ONCV_PBE-1.0.upf
CELL_PARAMETERS angstrom
    10.65000000      0.00000000      0.00000000
     0.00000000     10.65000000      0.00000000
     0.00000000      0.00000000     10.65000000
ATOMIC_POSITIONS angstrom
C        9.30101400        9.39123310        9.32937560
C       10.22776100       10.20545800       10.18079200
C        9.34497510        0.40562128        0.37108949
C       10.20418200        1.31030150        1.33424620
C        0.46132282        9.39857730        0.39220103
C        1.37895550       10.23566100        1.30881850
C        0.51708269        0.41559679        9.32134240
C        1.36421920        1.30448850       10.24075500
C        9.30398080        9.31804490        2.21798240
C       10.17164900       10.13416600        3.07528300
C        9.28939110        0.46830816        4.00358430
C       10.21178900        1.30085430        4.80020270
C        0.36308783        9.33770010        3.96824030
C        1.30782830       10.15819500        4.87064590
C        0.42255868        0.38086771        2.20428180
C        1.30567960        1.30319200        3.12428470
C        9.24843370        9.37050080        5.71275510
C       10.18468400       10.23671100        6.68942960
C        9.33006700        0.43989860        7.56967300
C       10.18967800        1.32836570        8.46135610
C        0.45617896        9.27154840        7.51657200
C        1.37183840       10.15143000        8.33433330
C        0.49377039        0.36146769        5.73641110
C        1.35877540        1.37450900        6.62869160
C        9.25375960        2.25837210        9.28735650
C       10.15755600        3.07417630       10.28217900
C        9.29780790        4.03635700        0.51834151
C       10.14289700        4.82714520        1.36115250
C        0.42967448        2.21099790        0.48566222
C        1.34878230        3.16016190        1.23355350
C        0.45755363        3.97060010        9.32483220
C        1.34453210        4.88530490       10.19828300
C        9.37719480        2.22534160        2.20463860
C       10.24503000        3.11696400        3.13065110
C        9.30580310        3.99100730        3.96484940
C       10.23099300        4.94187910        4.82104430
C        0.51458877        2.23674380        3.96716330
C        1.34195900        3.08241630        4.79591900
C        0.53040278        3.95067540        2.18610650
C        1.34552440        4.94567460        3.09401260
C        9.28323760        2.10004340        5.80555980
C       10.21642700        3.06632990        6.60960230
C        9.30743650        3.98732100        7.59785190
C       10.16528300        4.86047430        8.41805050
C        0.36879004        2.22659020        7.60691140
C        1.30859920        3.15956480        8.43194020
C        0.42609764        3.99432710        5.76956720
C        1.33397690        4.89555550        6.68839360
C        9.33231410        5.71937050        9.31893490
C       10.22739600        6.59018770       10.24137600
C        9.31194600        7.58259480        0.42066973
C       10.18623900        8.44862060        1.33433560
C        0.47473276        5.77425830        0.45814764
C        1.37675500        6.72236270        1.22227660
C        0.45575763        7.51691150        9.38685130
C        1.35371190        8.44550010       10.22896000
C        9.32289000        5.72439840        2.22125540
C       10.18135400        6.70848510        3.09128240
C        9.21171430        7.50292930        4.04946730
C       10.16594400        8.41433450        4.92312340
C        0.51259332        5.74514860        3.96821540
C        1.36305170        6.65934450        4.84232160
C        0.46445265        7.52623000        2.13415390
C        1.31693730        8.44049140        3.09850790
C        9.33193360        5.76112510        5.74339390
C       10.18456400        6.66006980        6.65235090
C        9.35127300        7.49745040        7.59060350
C       10.18125500        8.42568560        8.42719070
C        0.47725724        5.77550210        7.59666680
C        1.35762450        6.64034090        8.40420690
C        0.42263699        7.51080300        5.68561920
C        1.30081040        8.42713320        6.56154670
C        2.26749550        9.26773160        9.38056320
C        3.18709800       10.20589100       10.18736000
C        2.17099380        0.43319579        0.46908488
C        3.14924840        1.27716480        1.35513380
C        4.05167330        9.34177740        0.40545909
C        4.90914540       10.18045400        1.37819510
C        3.96262730        0.43529225        9.26651780
C        4.87173580        1.34513300       10.26113200
C        2.24179270        9.25299930        2.22888120
C        3.13968050       10.19065100        3.12736200
C        2.24853400        0.49835472        4.02238880
C        3.12551920        1.36541480        4.85308180
C        3.96830330        9.33791250        3.93451680
C        4.84000890       10.13491300        4.87255900
C        4.05874260        0.37837490        2.23651410
C        4.88481900        1.37712030        3.14648080
C        2.26097280        9.30987960        5.69002470
C        3.13800720       10.26230800        6.62583680
C        2.25811660        0.43339519        7.45319930
C        3.09674000        1.33577850        8.47876480
C        3.99059820        9.27972340        7.48098750
C        4.88952310       10.18110600        8.38236610
C        4.00916510        0.39622719        5.73521250
C        4.88928700        1.31868570        6.62582890
C        2.18195720        2.19032410        9.34314550
C        3.11088580        3.16085970       10.20689100
C        2.22358500        4.03481950        0.45124380
C        3.11438510        4.92429250        1.32463130
C        4.01003760        2.21487020        0.47959173
C        4.92487680        3.14121910        1.35350850
C        4.00692950        4.04086980        9.31948430
C        4.91261570        4.88906550       10.25048700
C        2.20274040        2.18235990        2.14258590
C        3.07244390        3.10953210        3.08941610
C        2.21426050        3.99002790        3.94210970
C        3.06962560        4.89197390        4.85109410
C        3.93308310        2.34830990        4.01339130
C        4.86374930        3.09216610        4.88283830
C        3.96965340        3.97243190        2.22535440
C        4.89755680        4.72762150        3.11998530
C        2.23265970        2.27201520        5.79829420
C        3.05232140        3.08927260        6.63382860
C        2.21866040        4.00980300        7.55453740
C        3.10478340        4.93033450        8.37996900
C        3.97079720        2.22330130        7.52677800
C        4.90163120        3.14823490        8.42760780
C        3.93479060        4.02068040        5.76251910
C        4.91315670        4.89612820        6.63792490
C        2.23041670        5.80878730        9.32167230
C        3.14701420        6.65833460       10.20393500
C        2.28223780        7.57125050        0.49545637
C        3.13166090        8.44022970        1.29583080
C        4.06543130        5.76248500        0.50131990
C        4.90600040        6.60148240        1.27619230
C        4.02672130        7.57651770        9.28617360
C        4.86855050        8.42422180       10.12733200
C        2.26128550        5.84333250        2.32659870
C        3.16843140        6.64988820        3.06995720
C        2.19741150        7.48126210        3.99291680
C        3.04284270        8.42170210        4.89518510
C        3.96533610        5.78600640        3.97130590
C        4.87338800        6.65521690        4.86548100
C        3.97612240        7.54150460        2.19465370
C        4.77932750        8.49072870        3.09754840
C        2.22860090        5.69994340        5.75768620
C        3.12770520        6.58209720        6.62587390
C        2.13264880        7.59970260        7.54516340
C        3.08147870        8.44926200        8.33796290
C        3.96002050        5.72180940        7.59038060
C        4.83159770        6.62368790        8.44994110
C        3.97497030        7.53581100        5.71529460
C        4.90607270        8.39671400        6.60896210
C        5.82389950        9.30424460        9.30060950
C        6.58751750       10.17877300       10.21519000
C        5.81389630        0.47534633        0.45150094
C        6.76499380        1.39221060        1.31919550
C        7.53125280        9.28936770        0.45173468
C        8.42474270       10.18704100        1.25320330
C        7.53225030        0.39997203        9.37688430
C        8.39505780        1.26850040       10.24378500
C        5.79175890        9.37627750        2.19804200
C        6.57769390       10.24591900        3.08540090
C        5.77531480        0.53479030        4.03838670
C        6.64278990        1.37637950        4.96148360
C        7.47338840        9.35574030        4.05108140
C        8.37130850       10.16572500        4.90932000
C        7.53731560        0.45091221        2.19106060
C        8.45766370        1.40375300        3.11598270
C        5.73104880        9.28549170        5.79288810
C        6.55048370       10.19492600        6.69986360
C        5.75271320        0.48636249        7.57380520
C        6.65636860        1.37095290        8.43387930
C        7.52426880        9.33188730        7.58263210
C        8.47399990       10.24031700        8.44610560
C        7.54345400        0.46191190        5.79967050
C        8.39948930        1.28647130        6.66950670
C        5.70089930        2.23014350        9.33948150
C        6.61107350        3.13233600       10.24019100
C        5.78715860        3.96990380        0.46263835
C        6.63975770        4.83650430        1.30437650
C        7.50136780        2.21063680        0.48201537
C        8.41514350        3.11719360        1.37818370
C        7.53900720        4.00936730        9.30106320
C        8.36897420        4.89243730       10.19409500
C        5.76842280        2.22427090        2.17022370
C        6.64971840        3.15198850        3.13786740
C        7.48073930        2.23367840        4.05009310
C        8.52713160        3.15863070        5.00552940
C        7.50439360        3.97380710        2.23440130
C        8.44943310        4.88746700        3.08737560
C        5.84111710        2.22058760        5.74926130
C        6.66294520        3.14305950        6.71926370
C        5.84198130        4.04328370        7.57657500
C        6.69857900        4.92023670        8.37805970
C        7.49545090        2.16392500        7.55930590
C        8.42462450        3.15050910        8.43127450
C        7.67694490        3.94873490        5.83022170
C        8.48359240        4.84055600        6.72094530
C        5.84505230        5.84512360        9.33102410
C        6.70243330        6.66566040       10.21477300
C        5.73208870        7.52731810        0.45354246
C        6.70042080        8.44344990        1.35228950
C        7.48160730        5.78034190        0.45254215
C        8.44392120        6.65300870        1.36170640
C        7.59063250        7.53000550        9.32783950
C        8.41161110        8.46548150       10.17778700
C        5.78279910        5.70448280        2.14987640
C        6.62147250        6.65092250        3.18195550
C        5.70962730        7.58185910        3.94218920
C        6.65510690        8.37122580        4.95962570
C        7.60791120        5.90137850        3.92936030
C        8.29159650        6.60574550        4.93052610
C        7.56909910        7.54651240        2.20329800
C        8.45047800        8.39574040        3.15255070
C        5.77868450        5.84251550        5.82054460
C        6.63807110        6.63106770        6.75882480
C        5.80694690        7.52855760        7.54040660
C        6.67508000        8.44273670        8.42079170
C        7.58100010        5.74202820        7.58964230
C        8.41058360        6.62208890        8.50576490
C        7.56405070        7.54509710        5.82520320
C        8.43802880        8.41629060        6.67311120
N        5.64008610        3.95989150        3.90449170
