&CONTROL
calculation = 'scf'
restart_mode = 'from_scratch'
verbosity = 'high'
wf_collect = .true.
pseudo_dir='/home/arpank/pseudopotentials/'
tprnfor = .true.
/
&SYSTEM
ibrav = 0
ecutwfc = 60
tot_charge = -1
nspin = 2
tot_magnetization = 2.0
nbnd = 480
nat = 215
ntyp = 2
input_dft = 'PBE0'
exx_fraction = 0.18
ecutfock = 120
/
&ELECTRONS
conv_thr = 1D-8
diago_full_acc=.true.
mixing_beta = 0.3
/
&IONS
ion_dynamics='bfgs'
ion_positions='default'
/
K_POINTS gamma
ATOMIC_SPECIES
C  12.01099968  C_ONCV_PBE-1.0.upf
N  14.00699997  N_ONCV_PBE-1.0.upf
CELL_PARAMETERS angstrom
    10.65000000      0.00000000      0.00000000
     0.00000000     10.65000000      0.00000000
     0.00000000      0.00000000     10.65000000
ATOMIC_POSITIONS angstrom
C        9.33596610        9.32972660        9.31488890
C       10.24668700       10.23238600       10.19392500
C        9.25740220        0.43276839        0.43053805
C       10.24611500        1.37323550        1.37299420
C        0.42265064        9.35447630        0.44962904
C        1.36370000       10.21005300        1.28132110
C        0.39945485        0.40409507        9.32521650
C        1.31760930        1.31596520       10.28018800
C        9.27842770        9.34507760        2.19096440
C       10.22967100       10.19050000        3.12349810
C        9.33280440        0.48206798        4.01735560
C       10.14338100        1.30664790        4.92303780
C        0.42303603        9.31327190        3.95151000
C        1.33670780       10.16833500        4.87448000
C        0.40727832        0.44008957        2.11334130
C        1.30138880        1.40725880        3.13496520
C        9.27831020        9.26525580        5.74041350
C       10.19027900       10.21554700        6.69640340
C        9.31395000        0.36104663        7.57807410
C       10.26063400        1.28036620        8.42493080
C        0.46934556        9.29652940        7.55726560
C        1.34711430       10.24092200        8.39151300
C        0.47796148        0.37737617        5.81629520
C        1.33685180        1.36172840        6.59831290
C        9.30575760        2.17791980        9.28445270
C       10.26162400        3.12539840       10.21202100
C        9.33692370        3.97824900        0.35453476
C       10.16934700        4.87594390        1.34634630
C        0.46050685        2.23586440        0.41880649
C        1.28035220        3.08205560        1.35931020
C        0.46724576        3.92510520        9.29446730
C        1.33259290        4.88698890       10.24083300
C        9.26143870        2.19435000        2.25705450
C       10.19118200        3.10656660        3.17110630
C        9.37364730        4.02413160        4.01094340
C       10.08141500        4.97427860        4.89755640
C        0.41813009        2.25037040        4.06277240
C        1.35935680        3.18807030        4.88618370
C        0.37469221        4.05699920        2.25864170
C        1.29037800        4.91436410        3.09374930
C        9.28788160        2.18783140        5.75403120
C       10.25064400        3.15676090        6.61457520
C        9.40071710        3.98282820        7.56142040
C       10.21406600        4.90258750        8.38241770
C        0.45273365        2.22976250        7.52358930
C        1.31341110        3.15657790        8.37179580
C        0.44843294        4.07213600        5.77336130
C        1.33661580        4.91562180        6.70365750
C        9.41605300        5.65305560        9.32252040
C       10.23103400        6.62996930       10.27556800
C        9.29706560        7.45488710        0.45280837
C       10.18925800        8.45056230        1.33829250
C        0.47294552        5.76913850        0.44670260
C        1.36178690        6.66565780        1.32264690
C        0.41054345        7.46514700        9.31965290
C        1.33659440        8.48539690       10.14516000
C        9.29562860        5.82277570        2.17477390
C       10.12678900        6.63820110        3.15401320
C        9.26508940        7.57784800        4.03144020
C       10.16102700        8.39750680        4.91211030
C        0.35763784        5.75302100        3.94794580
C        1.35250310        6.58594190        4.85733720
C        0.39835814        7.53648130        2.18248010
C        1.33838290        8.43628540        3.11663610
C        9.35606280        5.84211870        5.82628620
C       10.26124500        6.65674470        6.64991460
C        9.30785990        7.48761140        7.61388900
C       10.16482700        8.41783880        8.52244410
C        0.48890429        5.80227200        7.53976210
C        1.31967450        6.56528040        8.39714060
C        0.47910470        7.47827020        5.72831990
C        1.34623560        8.38266510        6.62090410
C        2.23646550        9.28312810        9.28417830
C        3.07935620       10.17684300       10.12347900
C        2.19435050        0.43649540        0.42748931
C        2.97873680        1.27265050        1.33041970
C        3.96981470        9.35292850        0.41854066
C        4.84243030       10.21391300        1.29875160
C        3.95664670        0.44909541        9.27503600
C        4.88438210        1.34553560       10.17954000
C        2.24552410        9.43524070        2.23175620
C        3.16874460       10.20651500        3.10199480
C        2.18908410        0.45723642        4.01771300
C        3.04272080        1.35033630        4.89863410
C        4.05207840        9.26231930        4.01169020
C        4.92242350       10.23878900        4.80260010
C        3.93096560        0.41540702        2.24165540
C        4.77457730        1.36828770        3.13953090
C        2.09424390        9.28877610        5.78422330
C        3.03516710       10.24031800        6.67030420
C        2.28382540        0.47323314        7.53925800
C        3.19029960        1.35750050        8.38234210
C        3.99550000        9.30017100        7.53694400
C        4.82837300       10.24430300        8.39941900
C        4.02052230        0.53399472        5.70462920
C        4.92837120        1.32528570        6.59267000
C        2.16327300        2.17626330        9.27778840
C        3.09162380        3.02917200       10.18070900
C        2.25282710        4.01437450        0.43521322
C        3.13474730        4.85879760        1.35334030
C        4.00149190        2.21716120        0.43153134
C        4.90230540        3.13940510        1.35593650
C        4.01182580        3.99064280        9.34835590
C        4.88581490        4.91440870       10.24194700
C        2.13867050        2.23680000        2.21691440
C        3.01368000        3.14937520        3.06655120
C        2.21003940        4.03541090        4.02465590
C        3.11376150        4.85727040        4.90789370
C        3.97974000        2.25455370        4.01866690
C        4.93255780        3.19306640        4.83686940
C        4.02492680        4.03043810        2.25152520
C        4.90417600        4.86551230        3.08688920
C        2.18482960        2.22449320        5.79611400
C        3.08588880        3.03924860        6.70965320
C        2.28951720        3.96791000        7.50784400
C        3.14538280        4.88373680        8.47342890
C        4.03190750        2.28772670        7.51706350
C        4.91559620        3.16281720        8.46994620
C        3.95416390        4.02798270        5.75356980
C        4.95777250        4.91010110        6.70064780
C        2.16874010        5.75702050        9.39698960
C        3.16435990        6.60518800       10.18078600
C        2.24520550        7.66407810        0.48473452
C        3.11846960        8.48632970        1.37502350
C        3.97669210        5.76388620        0.45505337
C        4.92346820        6.58249150        1.35980610
C        3.97212680        7.53793620        9.35416560
C        4.86429880        8.39501300       10.26292200
C        2.20455770        5.77942150        2.20883690
C        3.17414840        6.61083700        3.12111200
C        2.21727940        7.54709270        3.90626110
C        3.11973850        8.43501580        4.88502200
C        4.07033830        5.78909410        4.06805040
C        4.87617830        6.64125160        4.91069520
C        4.05100610        7.58759430        2.20619200
C        4.89587660        8.36172140        3.07345110
C        2.16154430        5.68893360        5.83113030
C        3.14010220        6.62766440        6.69217810
C        2.27599180        7.53938390        7.51472850
C        3.09570680        8.34217600        8.45481900
C        3.98648190        5.80119950        7.55843120
C        4.87557990        6.67718850        8.40263920
C        3.99241440        7.52487290        5.84861520
C        4.88410140        8.43040750        6.66167380
C        5.72635430        9.30041110        9.32109580
C        6.58864910       10.17854600       10.23405500
C        5.73846360        0.47713338        0.47026953
C        6.72021360        1.35029330        1.32657210
C        7.58276650        9.37642220        0.42699505
C        8.46433710       10.19835800        1.34716320
C        7.55019480        0.45013818        9.34053490
C        8.39149740        1.30773530       10.21683300
C        5.72635150        9.31824570        2.25185870
C        6.66991840       10.22046300        3.04971980
C        5.79681880        0.47715417        4.01201970
C        6.70150320        1.38023020        4.86510430
C        7.44671870        9.30221440        3.96422090
C        8.42700690       10.21190700        4.89399940
C        7.59038320        0.45308646        2.19640670
C        8.40606120        1.34928850        3.09852560
C        5.75841010        9.33689070        5.78130170
C        6.69712890       10.24784400        6.64505910
C        5.76613610        0.39811955        7.51837070
C        6.69583030        1.30399660        8.38570130
C        7.50992790        9.29565180        7.57589220
C        8.45738450       10.17846400        8.40378970
C        7.54349040        0.44009289        5.84811640
C        8.46934310        1.34133070        6.67660100
C        5.83122340        2.12373520        9.33595240
C        6.71569800        3.08969940       10.28497200
C        5.80373960        3.99548800        0.51406152
C        6.64862070        4.90854450        1.40369720
C        7.61641240        2.14839950        0.45568748
C        8.52750790        3.05977800        1.31269780
C        7.55844840        3.95010400        9.31001270
C        8.44074240        4.86235560       10.19240600
C        5.72554940        2.22306370        2.21081200
C        6.65349880        3.14041870        3.10016510
C        7.54688710        2.21341710        3.99519200
C        8.35911360        3.11141360        4.84414660
C        7.51789800        4.06124070        2.13029770
C        8.41594790        4.89544490        3.11278960
C        5.76015420        2.26289240        5.68237440
C        6.61180440        3.18785700        6.67126970
C        5.74374630        4.00280050        7.52800330
C        6.73481800        4.84585660        8.43626120
C        7.52670430        2.21985990        7.53867510
C        8.47321250        3.01878620        8.40316010
C        7.56767490        3.97569960        5.78518880
C        8.49482290        4.84422170        6.65634360
C        5.80724030        5.74901230        9.24450650
C        6.66290050        6.69225310       10.15596500
C        5.78769070        7.50815870        0.44706817
C        6.62375770        8.46626200        1.28813010
C        7.58230500        5.80281400        0.37090994
C        8.43901900        6.68078270        1.34922400
C        7.56091890        7.54442240        9.34009240
C        8.43455220        8.39542300       10.21865900
C        5.81933730        5.74437120        2.20801340
C        6.64110440        6.65356360        3.11566730
C        5.80115040        7.53783470        3.96934860
C        6.63308480        8.41291290        4.82396850
C        7.57105920        5.91359730        3.97289560
C        8.42163840        6.65852720        4.86297500
C        7.56016600        7.53193940        2.22173650
C        8.39872360        8.44412380        3.08028920
C        5.74037790        5.82258570        5.77717240
C        6.63505160        6.66430780        6.62860820
C        5.74792400        7.56053310        7.48738700
C        6.60501560        8.46236000        8.46224280
C        7.51747230        5.67630820        7.52328440
C        8.49419470        6.54847350        8.42665400
C        7.59318750        7.53640280        5.77826940
C        8.38013510        8.38411360        6.74854310
N        5.64573820        3.95306000        3.96894000
