&CONTROL
calculation = 'scf'
restart_mode = 'from_scratch'
verbosity = 'high'
wf_collect = .true.
pseudo_dir='/home/arpank/pseudopotentials/'
tprnfor = .true.
/
&SYSTEM
ibrav = 0
ecutwfc = 60
tot_charge = -1
nspin = 2
tot_magnetization = 2.0
nbnd = 480
nat = 215
ntyp = 2
input_dft = 'PBE0'
exx_fraction = 0.18
ecutfock = 120
/
&ELECTRONS
conv_thr = 1D-8
diago_full_acc=.true.
mixing_beta = 0.3
/
&IONS
ion_dynamics='bfgs'
ion_positions='default'
/
K_POINTS gamma
ATOMIC_SPECIES
C  12.01099968  C_ONCV_PBE-1.0.upf
N  14.00699997  N_ONCV_PBE-1.0.upf
CELL_PARAMETERS angstrom
    10.65000000      0.00000000      0.00000000
     0.00000000     10.65000000      0.00000000
     0.00000000      0.00000000     10.65000000
ATOMIC_POSITIONS angstrom
C        9.24494260        9.34811160        9.32121390
C       10.16224400       10.19848000       10.20127800
C        9.28688510        0.44642054        0.41105914
C       10.21815800        1.32613960        1.36569720
C        0.45933670        9.32045650        0.44410866
C        1.38151460       10.20354900        1.26464370
C        0.42362742        0.40379548        9.35949430
C        1.32486870        1.32186450       10.21939600
C        9.33650240        9.30189160        2.24007760
C       10.19322900       10.18164800        3.16459430
C        9.34754170        0.43126002        3.95217670
C       10.22876100        1.33029650        4.86677360
C        0.52727204        9.36960860        4.01079960
C        1.35828800       10.23622800        4.85643010
C        0.45107847        0.45617072        2.25834440
C        1.34345350        1.37261440        3.08305590
C        9.39205090        9.32597130        5.77687480
C       10.24875500       10.23745100        6.72149690
C        9.28845340        0.49251590        7.54335660
C       10.20466400        1.25052630        8.44586370
C        0.41839686        9.34694850        7.60183240
C        1.31689920       10.19013700        8.38543800
C        0.48021329        0.38352380        5.71178490
C        1.30189090        1.29737520        6.66571640
C        9.34462320        2.26776380        9.38980110
C       10.23334500        3.16895230       10.18027200
C        9.29416800        4.00058240        0.39956763
C       10.15889600        4.88810440        1.29852050
C        0.42471040        2.24841410        0.46430565
C        1.35949310        3.09853860        1.35412540
C        0.47854611        3.97434340        9.33164850
C        1.38549680        4.93033310       10.20887600
C        9.31300670        2.25601390        2.18575790
C       10.23661500        3.12787160        3.08742060
C        9.37710490        4.05934830        3.90133120
C       10.21618000        4.89153190        4.92533430
C        0.39273360        2.27619710        3.93252000
C        1.35513550        3.11950660        4.87280100
C        0.46041858        4.02292000        2.23578540
C        1.35786370        4.86318840        3.17533650
C        9.37854290        2.24823540        5.71461430
C       10.16975400        3.04481550        6.67610180
C        9.35210810        4.02567990        7.52003550
C       10.24731500        4.89273940        8.51384840
C        0.47904033        2.16205560        7.60535080
C        1.29881130        3.09349200        8.41862610
C        0.46538009        3.98630700        5.79326980
C        1.31955930        4.86604640        6.62759990
C        9.31626710        5.68947240        9.29019500
C       10.20580800        6.59955750       10.15997600
C        9.34374640        7.56864430        0.45491210
C       10.23839000        8.45996740        1.34462980
C        0.40533976        5.76210620        0.53651897
C        1.38161880        6.70364460        1.36386290
C        0.42781379        7.54122290        9.30854190
C        1.32942280        8.40851320       10.11492500
C        9.29994800        5.81530960        2.17039820
C       10.22810900        6.64278380        3.08910510
C        9.34523760        7.56076230        4.00624580
C       10.27760200        8.44000020        4.84600080
C        0.47588898        5.75221710        4.05601440
C        1.23384600        6.68125370        4.93704410
C        0.46155677        7.55970870        2.31727330
C        1.38895360        8.47008580        3.03580480
C        9.31341250        5.79924820        5.76616810
C       10.17841700        6.64327690        6.64448980
C        9.22062030        7.55605920        7.52849410
C       10.12152900        8.42615370        8.40573940
C        0.46854163        5.74108720        7.56009590
C        1.24557370        6.61708360        8.48829190
C        0.45787627        7.60378870        5.83536980
C        1.24668470        8.41259560        6.70275960
C        2.22686380        9.37105720        9.31674850
C        3.05531700       10.17768300       10.20928500
C        2.27767940        0.41522886        0.37504081
C        3.06926480        1.22535490        1.27777850
C        4.04370670        9.31317150        0.49137976
C        4.82241950       10.27546200        1.35130620
C        3.93787230        0.39745993        9.36385270
C        4.87105430        1.27728930       10.21002100
C        2.24011550        9.33907410        2.17410400
C        3.16309830       10.22926700        3.10453090
C        2.26467530        0.38645765        3.98258070
C        3.12865080        1.29270700        4.91261080
C        4.00953710        9.24956510        3.97179800
C        4.95060800       10.17975900        4.83332360
C        3.99517650        0.39172078        2.22974620
C        4.79641580        1.27969120        3.04487970
C        2.17419670        9.30485320        5.82149720
C        3.12018750       10.24874800        6.68976420
C        2.24051230        0.43049919        7.48890200
C        3.08548570        1.25825820        8.45803230
C        3.96692630        9.28803020        7.60981060
C        4.89229920       10.14525400        8.49070600
C        3.94300290        0.45502647        5.79527400
C        4.84619430        1.33962770        6.56783220
C        2.26748330        2.21697720        9.27904300
C        3.12380150        3.16679900       10.16035800
C        2.28623620        4.00637980        0.47597056
C        3.10411710        4.81684400        1.36303880
C        4.03483020        2.20420890        0.41321175
C        4.89328840        3.15721630        1.33266590
C        3.95085800        4.01991860        9.31902670
C        4.85196520        4.84136950       10.24336400
C        2.27848720        2.22544590        2.20080380
C        3.13272560        3.06378860        3.06017760
C        2.24868020        3.97961240        4.09466840
C        3.07251580        4.84883940        4.93764660
C        3.91371540        2.19953560        4.00309440
C        4.90037850        3.06353240        4.82436920
C        3.94814590        3.98477420        2.22333820
C        4.92783840        4.82087600        3.14788670
C        2.16264460        2.20710030        5.80123430
C        3.19494370        3.10825120        6.57783600
C        2.11981310        3.97545710        7.48465690
C        3.05070150        4.85536040        8.44782940
C        4.03167870        2.21136490        7.47679250
C        4.95698420        3.07654520        8.43905170
C        3.99340560        3.98380190        5.74395670
C        5.00227870        4.87796750        6.58466120
C        2.25889300        5.71688810        9.37926470
C        3.13005140        6.72342400       10.18286900
C        2.23117950        7.53822370        0.47745537
C        3.11550850        8.47157670        1.36203750
C        3.98330820        5.77381470        0.51504798
C        4.83835700        6.65933320        1.39393240
C        3.95271940        7.47889690        9.34716820
C        4.86587600        8.42595840       10.27489200
C        2.16735520        5.83258130        2.20778900
C        3.03525600        6.68257200        3.11684100
C        2.22694220        7.56635190        4.00578270
C        3.11692910        8.45959700        4.84695520
C        3.95295450        5.72374900        3.97915310
C        4.91323840        6.70243480        4.87405590
C        3.96888920        7.57376570        2.33107950
C        4.93036080        8.47896660        3.16128470
C        2.21050080        5.79960560        5.70635690
C        3.19538070        6.67161600        6.58178850
C        2.19891660        7.50106740        7.60151120
C        3.03723160        8.40595740        8.41226080
C        4.01519340        5.78585190        7.57750150
C        4.82441510        6.70242250        8.38837010
C        4.00579200        7.54545650        5.71971630
C        4.88637770        8.46444730        6.61228070
C        5.77702550        9.34540470        9.37122300
C        6.68040420       10.15940800       10.21450100
C        5.76968820        0.38963128        0.46226436
C        6.61072920        1.31901530        1.25789570
C        7.57262850        9.29331880        0.42014584
C        8.42689580       10.25032300        1.32870990
C        7.57443790        0.45532540        9.30002180
C        8.41709990        1.36494470       10.29304800
C        5.78917920        9.34099220        2.23937940
C        6.65816630       10.17464700        3.07848100
C        5.72490150        0.42777097        3.91218810
C        6.69031280        1.35680250        4.80747090
C        7.56690670        9.27609300        3.97522820
C        8.46233750       10.22460900        4.92250490
C        7.50757060        0.47171327        2.29635390
C        8.46832080        1.30696710        3.07857430
C        5.76841860        9.37068120        5.75625380
C        6.54853940       10.22686500        6.59845750
C        5.76719490        0.41385836        7.49617650
C        6.60901810        1.36972660        8.44286650
C        7.46355950        9.35717580        7.53746830
C        8.43830720       10.21664500        8.48756730
C        7.56196880        0.43957408        5.77000840
C        8.42497940        1.34902600        6.61076870
C        5.67502790        2.18742310        9.37835720
C        6.62773620        3.11961170       10.18227900
C        5.68871590        3.97330300        0.45083762
C        6.64570240        4.83750790        1.35755470
C        7.51503100        2.26578010        0.46266532
C        8.42808300        3.06837670        1.34761810
C        7.52751890        3.98064260        9.30253100
C        8.40916590        4.87637180       10.20037300
C        5.74601810        2.20740720        2.17040300
C        6.66660520        3.12804070        3.11702060
C        7.59222100        2.26188690        3.97925130
C        8.48266860        3.20090880        4.77472030
C        7.49252000        4.01920540        2.25797790
C        8.48572250        4.86783440        3.05754240
C        5.79294440        2.25224550        5.71320310
C        6.69223970        3.10536200        6.58174460
C        5.81662780        3.99563890        7.52481990
C        6.59162660        4.82663800        8.42701940
C        7.52498160        2.20183020        7.46894730
C        8.48090300        3.08786090        8.43940530
C        7.66617010        3.99966950        5.81622210
C        8.39944850        4.91655720        6.61897070
C        5.71516900        5.76617450        9.31909030
C        6.60279400        6.64428190       10.20245400
C        5.81070730        7.58957830        0.52735893
C        6.66171450        8.45576230        1.36093650
C        7.55446360        5.77359520        0.52501737
C        8.48264730        6.69941810        1.35961480
C        7.56686890        7.51379770        9.29403080
C        8.42091960        8.49715720       10.19974900
C        5.75544950        5.78638290        2.27818320
C        6.71703070        6.66134160        3.15327110
C        5.90034100        7.53367160        4.07295090
C        6.68731090        8.47623460        4.89173400
C        7.62172210        5.82892000        3.93646580
C        8.36383060        6.66739430        4.88427590
C        7.53888210        7.51957150        2.17201390
C        8.44042900        8.39837560        3.11098090
C        5.76371090        5.82531110        5.87570350
C        6.58076400        6.62060870        6.63938710
C        5.71662480        7.60754650        7.52417550
C        6.59167550        8.42195370        8.40576510
C        7.46839850        5.74326850        7.50625900
C        8.42846130        6.54220300        8.46473000
C        7.52840560        7.50622790        5.70155820
C        8.36861410        8.42207920        6.59917950
N        5.73954270        3.92506980        3.91628060
