&CONTROL
calculation = 'scf'
restart_mode = 'from_scratch'
verbosity = 'high'
wf_collect = .true.
pseudo_dir='/home/arpank/pseudopotentials/'
tprnfor = .true.
/
&SYSTEM
ibrav = 0
ecutwfc = 60
tot_charge = -1
nspin = 2
tot_magnetization = 2.0
nbnd = 480
nat = 215
ntyp = 2
input_dft = 'PBE0'
exx_fraction = 0.18
ecutfock = 120
/
&ELECTRONS
conv_thr = 1D-8
diago_full_acc=.true.
mixing_beta = 0.3
/
&IONS
ion_dynamics='bfgs'
ion_positions='default'
/
K_POINTS gamma
ATOMIC_SPECIES
C  12.01099968  C_ONCV_PBE-1.0.upf
N  14.00699997  N_ONCV_PBE-1.0.upf
CELL_PARAMETERS angstrom
    10.65000000      0.00000000      0.00000000
     0.00000000     10.65000000      0.00000000
     0.00000000      0.00000000     10.65000000
ATOMIC_POSITIONS angstrom
C        9.36063790        9.34209470        9.32046930
C       10.21286800       10.20688000       10.23494800
C        9.30662330        0.50783581        0.46485630
C       10.24720400        1.31423980        1.31869000
C        0.42609239        9.28717120        0.44564160
C        1.26625940       10.13756900        1.34687090
C        0.48693702        0.46554675        9.36674370
C        1.28379160        1.30470220       10.19885600
C        9.34453440        9.31686340        2.14055370
C       10.19088300       10.16991700        3.06689910
C        9.33447520        0.44241994        3.96387500
C       10.26103900        1.32853210        4.88301110
C        0.43245000        9.25673800        3.95749660
C        1.37083700       10.20710000        4.83223170
C        0.47301696        0.46810488        2.24806000
C        1.38671700        1.30130620        3.06103110
C        9.30462340        9.32386690        5.81269340
C       10.19261700       10.15693100        6.62777320
C        9.41951120        0.43730939        7.56589180
C       10.28407600        1.38591490        8.48405690
C        0.40996510        9.33592110        7.58834420
C        1.32469340       10.18137500        8.39476670
C        0.37099377        0.45832848        5.64764320
C        1.22006780        1.32463450        6.58425690
C        9.31663690        2.22484430        9.37915410
C       10.13466700        3.07367790       10.26200300
C        9.32141460        4.01054360        0.47162689
C       10.17133800        4.91728310        1.30535200
C        0.44231447        2.25187940        0.48755749
C        1.37389930        3.13714380        1.35959620
C        0.37083842        3.97487590        9.31278050
C        1.28361550        4.92234600       10.21282700
C        9.36714770        2.22646500        2.27397880
C       10.21941100        3.03086350        3.09631410
C        9.36349570        3.98034860        3.95705730
C       10.19731800        4.90493740        4.89229490
C        0.46063819        2.23088470        3.95062240
C        1.29799850        3.11694490        4.93891720
C        0.48785937        4.02330810        2.16234940
C        1.34956750        4.86572990        3.19527790
C        9.35643690        2.21395500        5.75916360
C       10.18441000        3.06762370        6.64925530
C        9.27534330        3.92568890        7.53074660
C       10.15450300        4.90027410        8.41296470
C        0.43196921        2.19587490        7.57736510
C        1.36092620        3.15477180        8.34844680
C        0.34568004        4.00959650        5.75274650
C        1.31484170        4.94140590        6.59726240
C        9.31022940        5.74790400        9.28501850
C       10.17639800        6.68218670       10.15257800
C        9.31963420        7.49015610        0.38036158
C       10.21284400        8.35672390        1.26138680
C        0.44441556        5.72761590        0.41953009
C        1.36098950        6.71035800        1.29213200
C        0.38035195        7.53427650        9.27798540
C        1.30090990        8.47312180       10.17548500
C        9.28962500        5.75589010        2.19614760
C       10.20949900        6.61340300        3.13357020
C        9.29401430        7.52653480        3.95363740
C       10.18227200        8.42856370        4.86249290
C        0.40894161        5.76348890        3.97257560
C        1.30550300        6.64141570        4.85628620
C        0.40420411        7.51966850        2.18338700
C        1.35499840        8.39787460        3.07573000
C        9.29829370        5.77282240        5.75821460
C       10.22445000        6.72704430        6.64212320
C        9.25521030        7.60682900        7.48943850
C       10.16413400        8.44822370        8.43834190
C        0.37056509        5.81516540        7.53975830
C        1.31823340        6.60540820        8.42717170
C        0.41680411        7.49429810        5.73189310
C        1.34672710        8.48851280        6.63307980
C        2.17788450        9.37600470        9.27366280
C        3.08516010       10.21461600       10.16767600
C        2.23226180        0.48120565        0.36768934
C        3.16932330        1.28901570        1.39163870
C        4.01094160        9.29747950        0.45343441
C        4.94010470       10.22536100        1.31120820
C        3.98834710        0.35953125        9.31025570
C        4.78549410        1.31220250       10.21709800
C        2.27658210        9.24151370        2.14386800
C        3.12521130       10.18180700        3.06495920
C        2.23626090        0.44974957        3.96419020
C        3.11894100        1.30204980        4.89157880
C        3.99173460        9.29971940        3.97033540
C        4.91577620       10.23439000        4.84465410
C        4.00892390        0.37766280        2.15181050
C        4.93999740        1.31145760        3.10844850
C        2.33901390        9.35362090        5.77233300
C        3.10639600       10.28237400        6.64149090
C        2.26905620        0.48392733        7.50896910
C        3.08825890        1.37566410        8.43971540
C        3.93626320        9.30568650        7.54980500
C        4.91080940       10.15186500        8.40962250
C        4.00370370        0.42389010        5.75907730
C        4.88058650        1.37833460        6.73813820
C        2.18918660        2.19659490        9.34994170
C        3.09130320        3.08819720       10.24695300
C        2.26421900        3.98542800        0.44765728
C        3.11947150        4.90456550        1.38936540
C        3.99005460        2.19072020        0.43267448
C        4.87554730        3.11667380        1.29916650
C        4.06081360        3.96296180        9.32140270
C        4.86416870        4.85773650       10.18759800
C        2.33206280        2.22547610        2.25811150
C        3.10189070        3.04481710        3.16079980
C        2.26728440        3.96467320        4.05850860
C        3.17332080        4.88863100        4.88239670
C        3.92369360        2.17400560        3.97627470
C        4.92572500        3.07503690        4.86734500
C        3.95564420        3.98351640        2.28017220
C        4.90161880        4.78478790        3.19333250
C        2.20908470        2.16962670        5.73446090
C        3.06739380        3.05651540        6.60250870
C        2.20447820        4.00332090        7.53528500
C        3.13569320        4.89421560        8.49093680
C        3.95094620        2.19063260        7.61649520
C        4.89847910        3.10808270        8.46975420
C        4.01936950        3.97625720        5.75803630
C        4.92912940        4.89227360        6.60492090
C        2.18545520        5.76950800        9.35073750
C        3.06766490        6.60873920       10.22258100
C        2.13374240        7.55916040        0.49412532
C        3.13857230        8.38720630        1.25803900
C        3.98408210        5.73542950        0.52967744
C        4.88548030        6.69392270        1.38251200
C        4.03583800        7.48737310        9.33585430
C        4.90809320        8.41391350       10.19162600
C        2.26712180        5.75896200        2.30212780
C        3.16582380        6.63139150        3.13474730
C        2.20690870        7.48156200        4.04731690
C        3.12662000        8.50883820        4.93466240
C        3.97345000        5.78605770        4.01022290
C        4.90107920        6.64331820        4.88398700
C        4.05412630        7.52988240        2.20707930
C        4.88897730        8.42776050        3.11947990
C        2.25405970        5.74969380        5.71655300
C        3.08012610        6.71797650        6.62961810
C        2.18207570        7.51277130        7.54966900
C        3.10406220        8.41558800        8.39315440
C        4.02000290        5.82927840        7.53022290
C        4.88592990        6.75523280        8.37550010
C        4.12279050        7.59073720        5.77840030
C        4.89990850        8.41694320        6.66817100
C        5.86398390        9.38730700        9.38112660
C        6.70018850       10.23594300       10.26346500
C        5.77463160        0.50044224        0.43605188
C        6.63172480        1.33210920        1.30043060
C        7.57085760        9.38036990        0.45980973
C        8.48022540       10.15092100        1.30664010
C        7.50901040        0.49500861        9.32083860
C        8.46105990        1.30698510       10.23334100
C        5.75346800        9.34663650        2.23882340
C        6.63246780       10.29535000        3.10712420
C        5.83286200        0.51725383        4.01743550
C        6.63511270        1.36173510        4.86953640
C        7.49619380        9.31521730        4.01401810
C        8.44025280       10.23647200        4.93467030
C        7.53415140        0.45179667        2.18084240
C        8.47692030        1.37039880        3.13149510
C        5.81935300        9.33721290        5.76663430
C        6.72693070       10.20445200        6.71674730
C        5.79037820        0.37538102        7.65588450
C        6.68618460        1.35331570        8.41251800
C        7.58051490        9.25973810        7.62857830
C        8.55903170       10.18359800        8.42616260
C        7.62027760        0.52089177        5.74531360
C        8.45111830        1.34324770        6.66150570
C        5.73971010        2.29943390        9.29514320
C        6.62632460        3.12078340       10.17929400
C        5.75328260        4.08412630        0.40699247
C        6.68513720        4.86798390        1.36698960
C        7.55106670        2.19865160        0.48911943
C        8.41571980        3.00672320        1.31072950
C        7.49987980        4.05760770        9.30678110
C        8.36568180        4.91480880       10.22465700
C        5.76280660        2.24996950        2.23304480
C        6.59686590        3.15451910        3.07741740
C        7.53704850        2.22148000        3.96830660
C        8.39047970        3.15727920        4.85843070
C        7.51618650        3.98076480        2.19379810
C        8.40450610        4.86937630        3.05887350
C        5.71529940        2.27492940        5.76423340
C        6.63036600        3.15325450        6.66331790
C        5.81336370        3.97834360        7.55679340
C        6.62482990        4.85275260        8.52572880
C        7.39282070        2.26393220        7.54575820
C        8.39123390        3.10262390        8.45764240
C        7.57732230        3.94929840        5.81122040
C        8.38211920        4.90142430        6.65178630
C        5.77054220        5.79613750        9.32294970
C        6.58484870        6.61260910       10.18929700
C        5.75373460        7.49783950        0.47087860
C        6.67477290        8.45674460        1.29723460
C        7.62361620        5.76771940        0.47434167
C        8.44301920        6.67869410        1.34603120
C        7.56638380        7.57214600        9.35176000
C        8.37778410        8.36650670       10.17805500
C        5.73413800        5.75691350        2.29556970
C        6.72777210        6.66010070        3.14770870
C        5.77310980        7.56086540        4.00350940
C        6.56717260        8.42613230        4.89194430
C        7.63180340        5.74818860        3.93447050
C        8.43452340        6.57143420        4.85881180
C        7.50757280        7.50696530        2.24818670
C        8.44980840        8.47988930        3.09056080
C        5.74873400        5.81342190        5.78413360
C        6.60943570        6.62711260        6.68811540
C        5.71863780        7.56404560        7.56526910
C        6.60403390        8.45785170        8.48529540
C        7.55676370        5.81606390        7.54264220
C        8.42089620        6.65311150        8.40657950
C        7.55140760        7.52036270        5.74734130
C        8.36302800        8.50124690        6.70484480
N        5.65307450        3.84843140        3.89737160
