&CONTROL
calculation = 'scf'
restart_mode = 'from_scratch'
verbosity = 'high'
wf_collect = .true.
pseudo_dir='/home/arpank/pseudopotentials/'
tprnfor = .true.
/
&SYSTEM
ibrav = 0
ecutwfc = 60
tot_charge = -1
nspin = 2
tot_magnetization = 2.0
nbnd = 480
nat = 215
ntyp = 2
input_dft = 'PBE0'
exx_fraction = 0.18
ecutfock = 120
/
&ELECTRONS
conv_thr = 1D-8
diago_full_acc=.true.
mixing_beta = 0.3
/
&IONS
ion_dynamics='bfgs'
ion_positions='default'
/
K_POINTS gamma
ATOMIC_SPECIES
C  12.01099968  C_ONCV_PBE-1.0.upf
N  14.00699997  N_ONCV_PBE-1.0.upf
CELL_PARAMETERS angstrom
    10.65000000      0.00000000      0.00000000
     0.00000000     10.65000000      0.00000000
     0.00000000      0.00000000     10.65000000
ATOMIC_POSITIONS angstrom
C        9.34658730        9.36712470        9.34127960
C       10.19487800       10.26314100       10.17706500
C        9.30924160        0.43468650        0.42034500
C       10.13613200        1.35952280        1.38794010
C        0.47193156        9.34136600        0.39797770
C        1.30262150       10.22837800        1.19345350
C        0.48254842        0.45645634        9.33904170
C        1.32568370        1.42333500       10.22705500
C        9.25247250        9.24570550        2.27899810
C       10.22760300       10.09008800        3.11184800
C        9.29056620        0.42354680        3.96380420
C       10.18790400        1.29416630        4.93222090
C        0.40309184        9.26506710        4.08163640
C        1.30051010       10.23211200        4.88768500
C        0.46857052        0.45790432        2.23017670
C        1.30702440        1.32310030        3.14771820
C        9.26773650        9.35493660        5.77385750
C       10.15344300       10.16433100        6.65702790
C        9.33620380        0.45392239        7.59690090
C       10.15908700        1.40348690        8.44505340
C        0.48075474        9.39054470        7.52129690
C        1.41089880       10.25535700        8.40307620
C        0.43959111        0.41351122        5.80378530
C        1.35502380        1.28689120        6.61562770
C        9.26834970        2.23672670        9.32431180
C       10.21647600        3.14718950       10.23718200
C        9.30844470        3.98526690        0.49320480
C       10.15214000        4.84932930        1.34998980
C        0.40208136        2.23531490        0.44159830
C        1.31334200        3.10652680        1.39202430
C        0.45555778        4.04067900        9.32665030
C        1.28614990        4.91110860       10.16565600
C        9.24010400        2.19948940        2.23588440
C       10.13462200        3.04803390        3.11593120
C        9.30156190        4.00211850        3.99072720
C       10.21384800        4.94077520        4.84836890
C        0.42767294        2.15946650        3.99439260
C        1.36461480        3.14401320        4.94923970
C        0.45900048        3.88787070        2.22640900
C        1.37271030        4.86162160        3.13378150
C        9.31822780        2.26019710        5.71235700
C       10.22410500        3.10924700        6.63317540
C        9.37212620        4.06121990        7.58466430
C       10.19492200        4.94459050        8.44201140
C        0.48302158        2.22289820        7.48248720
C        1.26191710        3.12257080        8.39319060
C        0.47524814        4.05977250        5.74595350
C        1.33959860        4.90330170        6.71819670
C        9.29692180        5.75993260        9.31858130
C       10.20360300        6.70171230       10.14031800
C        9.33880860        7.53871760        0.38100493
C       10.21341500        8.47719210        1.28002600
C        0.44259979        5.75733990        0.46656097
C        1.29556950        6.61425120        1.28429790
C        0.39715661        7.57160830        9.28287490
C        1.30931720        8.49542840       10.19690000
C        9.38451090        5.70378280        2.16586960
C       10.24285300        6.58110000        3.03867070
C        9.33005590        7.50593670        3.98405460
C       10.18124200        8.41661840        4.89038040
C        0.48826872        5.77478680        3.95817920
C        1.35209430        6.64543550        4.93280680
C        0.44080790        7.50622880        2.20664970
C        1.29239440        8.42391820        3.14367880
C        9.34776560        5.80369730        5.75550210
C       10.17881700        6.67955250        6.58721440
C        9.31660390        7.54399490        7.58318540
C       10.20902500        8.52375510        8.46206250
C        0.44087062        5.79945610        7.46858780
C        1.37499350        6.66081790        8.41465080
C        0.49972949        7.58970260        5.80292320
C        1.33791700        8.47644510        6.73485060
C        2.21267160        9.29175580        9.26611960
C        3.03614700       10.21304600       10.16922200
C        2.19918450        0.43305149        0.49432149
C        3.03333580        1.28136310        1.36097010
C        3.97067220        9.39302100        0.52119249
C        4.90919200       10.14308500        1.35636930
C        3.93160040        0.41603680        9.29262200
C        4.93119170        1.29352760       10.24020300
C        2.22809490        9.35068400        2.23346220
C        3.09809190       10.15277500        3.04931590
C        2.17667620        0.44703604        3.99276530
C        3.11354230        1.35689870        4.85168780
C        4.01437330        9.29094840        3.96827930
C        4.88795820       10.26755000        4.87838590
C        4.02340870        0.35961615        2.20445610
C        4.83510090        1.24926290        3.06879160
C        2.23667520        9.26646740        5.85783560
C        3.12220010       10.19716600        6.73387970
C        2.26046250        0.48033858        7.56307780
C        3.04404750        1.41365150        8.46049330
C        3.89795930        9.33543780        7.50328850
C        4.90836950       10.20618700        8.46910550
C        3.95614290        0.50089059        5.81810830
C        4.87561010        1.39605300        6.61796250
C        2.19478500        2.31904640        9.28316760
C        3.15740720        3.17418380       10.20579000
C        2.21755010        3.96686740        0.35573167
C        3.07699740        4.91654680        1.30773190
C        3.96682870        2.23289910        0.43542964
C        4.79458910        3.14705310        1.29470450
C        4.03278890        4.01278810        9.29324870
C        4.99195130        4.85041450       10.15485100
C        2.17485640        2.14246360        2.24337670
C        3.06817330        3.15030890        3.13897240
C        2.27711820        3.97804220        4.03149370
C        3.11488000        4.87338050        4.90003070
C        4.01598590        2.22727310        3.95516970
C        4.86486030        3.09505000        4.89650400
C        3.91179240        3.91736560        2.21333820
C        4.80014570        4.77421630        3.06812090
C        2.18260020        2.20164740        5.72564010
C        3.11702990        3.10422050        6.71610780
C        2.13865520        3.96351590        7.57412650
C        3.11261210        4.86620750        8.45296140
C        3.96413910        2.30997180        7.52485980
C        4.87674420        3.22223780        8.43440610
C        4.06221650        4.02188680        5.70274370
C        4.94568460        4.90133540        6.64451890
C        2.28119970        5.77529190        9.33261100
C        3.14107570        6.66936840       10.21416600
C        2.28569320        7.57771020        0.35579194
C        3.13825670        8.43811940        1.37703710
C        4.02353300        5.77804480        0.43064602
C        4.87803400        6.61792620        1.41636280
C        3.99120540        7.53915690        9.37593610
C        4.85671540        8.37672730       10.31453700
C        2.25329550        5.72221840        2.13289960
C        3.14505190        6.59287090        3.05387020
C        2.26638320        7.56490000        4.00651950
C        3.10713960        8.42357970        4.79266500
C        4.01767700        5.69919900        4.00474590
C        4.94418610        6.56473200        4.89368120
C        4.03299680        7.47407010        2.22154890
C        4.89662390        8.42986400        3.09219740
C        2.26517850        5.74630980        5.79988110
C        3.10349110        6.64151340        6.60629020
C        2.27096540        7.52412370        7.56248160
C        3.10245160        8.40321260        8.43511950
C        3.98819500        5.72585500        7.58827030
C        4.87985830        6.71278490        8.46615740
C        4.07251170        7.56588280        5.76009750
C        4.86338400        8.38471020        6.66328380
C        5.79792640        9.33264890        9.36776200
C        6.66396040       10.23198900       10.18648900
C        5.85534460        0.45632267        0.40340628
C        6.64569600        1.31764830        1.33283750
C        7.55716380        9.32221780        0.44942543
C        8.40424870       10.17071400        1.25004280
C        7.55636930        0.44015537        9.35521710
C        8.49598320        1.31911490       10.19023800
C        5.73867190        9.26015620        2.19548580
C        6.68565880       10.26667900        3.08339750
C        5.73155910        0.42370499        3.99767570
C        6.60687830        1.32927080        4.89738810
C        7.50155830        9.32547110        4.01119710
C        8.41222070       10.20593800        4.86825800
C        7.50327800        0.42969061        2.11113640
C        8.41789740        1.26776630        3.11896240
C        5.72986860        9.31385340        5.75451020
C        6.56708920       10.24812200        6.66444070
C        5.75087830        0.45953369        7.58457940
C        6.68645930        1.32525690        8.45179200
C        7.51412670        9.35046150        7.53494740
C        8.43542290       10.19766200        8.40638280
C        7.57185680        0.46274402        5.83794220
C        8.43226000        1.31817830        6.66422720
C        5.82006100        2.17514580        9.31910280
C        6.67136140        3.03755760       10.28990100
C        5.76113110        3.91132760        0.40907264
C        6.62385380        4.89044590        1.25478240
C        7.54222280        2.16949250        0.44499474
C        8.42844710        3.15070500        1.35879430
C        7.58787220        3.95830600        9.33300560
C        8.43323960        4.92674060       10.21048600
C        5.78678780        2.17251610        2.19142580
C        6.65852480        3.06162590        3.08075580
C        7.52393870        2.25005630        4.02686390
C        8.42882210        3.11143320        4.92774710
C        7.52041010        4.01085420        2.18616270
C        8.43292790        4.86651300        3.04222680
C        5.77439910        2.19663410        5.77906240
C        6.68726030        3.15640320        6.62051020
C        5.82235790        3.99357690        7.50945500
C        6.69913740        4.87857900        8.48608430
C        7.54748210        2.15655920        7.52573680
C        8.39519030        3.10754920        8.39503930
C        7.52518670        3.97297220        5.81650690
C        8.46874080        4.86284930        6.61867210
C        5.76736960        5.73232490        9.31362170
C        6.66535740        6.72156010       10.22681900
C        5.77457600        7.58125150        0.47878402
C        6.73427320        8.39313610        1.34126190
C        7.56054370        5.75785120        0.47538922
C        8.49153260        6.61351480        1.36340280
C        7.60072500        7.62623800        9.37753360
C        8.39526140        8.45148110       10.26438600
C        5.83522970        5.72286840        2.21463080
C        6.68221050        6.65202510        3.09184580
C        5.77373170        7.57226380        4.05036260
C        6.64399140        8.51125730        4.88808690
C        7.60293200        5.78641160        3.84332700
C        8.46260350        6.56128410        4.78616040
C        7.55940950        7.62202660        2.25959440
C        8.42311740        8.48260840        3.17408560
C        5.71514070        5.89216270        5.82516990
C        6.67217360        6.62058030        6.67607800
C        5.70806550        7.53862490        7.60919860
C        6.64393470        8.49569500        8.41393350
C        7.55886330        5.79516550        7.54979550
C        8.43477450        6.59375300        8.46992030
C        7.51460030        7.47651790        5.80251310
C        8.37439030        8.45820780        6.64824290
N        5.66893290        3.89543350        3.86303000
