&CONTROL
calculation = 'scf'
restart_mode = 'from_scratch'
verbosity = 'high'
wf_collect = .true.
pseudo_dir='/home/arpank/pseudopotentials/'
tprnfor = .true.
/
&SYSTEM
ibrav = 0
ecutwfc = 60
tot_charge = -1
nspin = 2
tot_magnetization = 2.0
nbnd = 480
nat = 215
ntyp = 2
input_dft = 'PBE0'
exx_fraction = 0.18
ecutfock = 120
/
&ELECTRONS
conv_thr = 1D-8
diago_full_acc=.true.
mixing_beta = 0.3
/
&IONS
ion_dynamics='bfgs'
ion_positions='default'
/
K_POINTS gamma
ATOMIC_SPECIES
C  12.01099968  C_ONCV_PBE-1.0.upf
N  14.00699997  N_ONCV_PBE-1.0.upf
CELL_PARAMETERS angstrom
    10.65000000      0.00000000      0.00000000
     0.00000000     10.65000000      0.00000000
     0.00000000      0.00000000     10.65000000
ATOMIC_POSITIONS angstrom
C        9.29792050        9.28549740        9.31422600
C       10.23333900       10.19592300       10.22894400
C        9.28153620        0.41177107        0.46191901
C       10.24920300        1.29282310        1.39085070
C        0.41191226        9.34386700        0.54806028
C        1.33920030       10.24891200        1.36764940
C        0.45281382        0.45898588        9.24501750
C        1.28325580        1.30090970       10.16898100
C        9.29894130        9.27892430        2.24716660
C       10.20351300       10.25799500        3.16915380
C        9.32680350        0.45896849        4.05854600
C       10.23711700        1.28192160        4.94333080
C        0.46788525        9.38620010        4.00749570
C        1.35818400       10.23200000        4.88325920
C        0.38362086        0.44380646        2.22946960
C        1.26890130        1.29316200        3.11541590
C        9.30915880        9.24208480        5.70616840
C       10.20625200       10.23251200        6.62622270
C        9.28839370        0.47623823        7.58743420
C       10.22233600        1.31600780        8.45856360
C        0.36235134        9.26353150        7.56119860
C        1.32741440       10.18908900        8.46132160
C        0.45612159        0.44674889        5.75788530
C        1.28879320        1.32508530        6.67020320
C        9.32717690        2.23852830        9.30306960
C       10.29664500        3.16607600       10.10240100
C        9.31335480        4.01565500        0.38353369
C       10.15701600        4.85435950        1.33026130
C        0.44252346        2.20785220        0.50068181
C        1.33255200        3.10151760        1.32373930
C        0.44820241        4.01961130        9.29057550
C        1.31031170        4.88224520       10.20169100
C        9.36373570        2.17103020        2.18182420
C       10.22208200        3.07502170        3.07848730
C        9.35261770        3.98443910        3.95324690
C       10.18079100        4.90122120        4.91058910
C        0.36589195        2.17899800        4.01138870
C        1.34370740        3.04698160        4.92630130
C        0.36705510        3.90535690        2.19586580
C        1.27979660        4.80384690        3.13715620
C        9.37289690        2.12340920        5.81326930
C       10.11960500        3.12519210        6.65350590
C        9.29733180        4.02417850        7.52179460
C       10.21672500        4.94679060        8.36233720
C        0.39604356        2.19012980        7.52851630
C        1.35168670        3.16831150        8.43031720
C        0.42540205        4.00262900        5.76106860
C        1.33875980        4.83717370        6.63199900
C        9.28619880        5.80398130        9.27301040
C       10.18146300        6.63459320       10.26647400
C        9.34862950        7.61806110        0.45793774
C       10.24139900        8.44554360        1.42358040
C        0.39264573        5.76763750        0.40624279
C        1.24678660        6.64480410        1.32294970
C        0.38255542        7.56749050        9.32464870
C        1.33057450        8.44570850       10.16210800
C        9.31304970        5.76307720        2.25499750
C       10.20885600        6.61740470        3.08771000
C        9.33249350        7.47387960        4.01564350
C       10.26672200        8.44567010        4.93946590
C        0.48661132        5.79855810        4.04266810
C        1.36090370        6.66694010        4.81876960
C        0.38208077        7.53342700        2.27797300
C        1.30050140        8.44960820        3.16381180
C        9.34367020        5.74335560        5.75599900
C       10.20170400        6.68058260        6.73559460
C        9.31712700        7.56490670        7.48660620
C       10.22985600        8.41139160        8.48642180
C        0.50813850        5.82300700        7.49608360
C        1.35813060        6.65932710        8.44413800
C        0.39258697        7.58508490        5.72988290
C        1.36360660        8.45271000        6.69227760
C        2.20062870        9.36410020        9.27533250
C        3.10644100       10.19512000       10.14431800
C        2.17363310        0.47370309        0.39493112
C        3.17722380        1.37105790        1.36711750
C        4.00056530        9.32236690        0.42805482
C        4.91324730       10.21551300        1.34571290
C        3.98629440        0.44819050        9.34444500
C        4.94453260        1.33164550       10.17137600
C        2.21090480        9.35765020        2.26414130
C        3.18528610       10.22186000        3.11289540
C        2.21684090        0.40716618        4.01205140
C        3.10800340        1.31375590        4.86604100
C        4.02009620        9.37459280        4.05327310
C        4.94466460       10.27107300        4.94106920
C        4.01681470        0.46215935        2.18123770
C        4.95055580        1.36243130        3.07772680
C        2.21829250        9.30623250        5.85429040
C        3.11193950       10.25348500        6.70104170
C        2.23436290        0.41874306        7.53683120
C        3.09217310        1.35181900        8.44357930
C        3.92742300        9.28724880        7.58279470
C        4.80290890       10.17359000        8.39908460
C        3.99742340        0.43166449        5.80421590
C        4.93779600        1.35180930        6.58738510
C        2.22561630        2.27820380        9.27711530
C        3.15644450        3.07310510       10.19204800
C        2.24457480        3.94890750        0.42819372
C        3.20123150        4.91124540        1.29467470
C        3.99231030        2.28335050        0.44249152
C        4.90189190        3.15529390        1.28983820
C        3.97050920        3.98438670        9.27014280
C        4.86378940        4.90256360       10.20084700
C        2.16356320        2.20360650        2.19111390
C        3.06821900        3.04107260        3.06498450
C        2.17978750        3.97256250        4.01079660
C        3.08376640        4.93043890        4.86890690
C        3.94203110        2.14752220        3.95136230
C        4.83092820        3.20882700        4.79148010
C        4.05569710        3.98057170        2.18057250
C        4.96151720        4.87952420        3.05040460
C        2.20875850        2.22240480        5.71649440
C        3.02252200        3.07824510        6.65972550
C        2.16265840        3.96820810        7.52327640
C        3.13832860        4.92706100        8.35506280
C        3.99136230        2.23250990        7.54211640
C        4.87175400        3.08357480        8.38192750
C        3.99570000        4.05885620        5.72845960
C        4.89718330        4.85856110        6.63554050
C        2.20973130        5.77757140        9.35683370
C        3.10012970        6.62852940       10.21515400
C        2.24113370        7.57372920        0.44995206
C        3.12475030        8.43065710        1.34318770
C        4.06427120        5.78232200        0.35379977
C        4.85625160        6.60650920        1.31676770
C        3.97055990        7.46853970        9.27963270
C        4.95832200        8.39098810       10.14288000
C        2.21517480        5.74180870        2.18400280
C        3.10971750        6.69586890        3.02314490
C        2.22877960        7.54965680        4.01738720
C        3.12388330        8.43092130        4.92302760
C        3.99433430        5.81565200        3.90913480
C        4.85080130        6.66444890        4.82356220
C        4.00976080        7.59633820        2.18841240
C        4.87307410        8.47908460        3.13316850
C        2.22895140        5.79677830        5.67374400
C        3.13093000        6.72141320        6.62083120
C        2.19399470        7.57799380        7.54614950
C        3.10273500        8.39526940        8.41024720
C        4.00918880        5.70630510        7.62872630
C        4.87383280        6.64879750        8.38413280
C        4.00383330        7.51361330        5.79216250
C        4.88086240        8.44314870        6.76828780
C        5.71426620        9.32258090        9.29674590
C        6.74105240       10.17200900       10.21256700
C        5.77597330        0.49200212        0.38721392
C        6.65414160        1.32022310        1.32492480
C        7.48175790        9.20233330        0.46862702
C        8.43527440       10.22120900        1.37810460
C        7.52444770        0.43832270        9.29933400
C        8.47824620        1.41017870       10.18442500
C        5.77245330        9.33501060        2.23307820
C        6.68846240       10.24412700        3.15062250
C        5.83093800        0.46474918        3.99802130
C        6.69294030        1.36817420        4.92656220
C        7.52754730        9.32216290        3.98562820
C        8.37235200       10.21923800        4.97373340
C        7.56186710        0.39575620        2.17867630
C        8.47821630        1.29608780        3.03714680
C        5.73237340        9.33030840        5.82155590
C        6.64352030       10.14273400        6.63092170
C        5.82954070        0.39848725        7.53911580
C        6.63557070        1.32902840        8.47604390
C        7.60457450        9.34232300        7.53164410
C        8.36774830       10.24436900        8.40482180
C        7.55887900        0.53386751        5.88595230
C        8.38617650        1.28114840        6.65660650
C        5.79345900        2.26415850        9.30058640
C        6.60848390        3.13198320       10.15992500
C        5.86116730        4.02750660        0.45191434
C        6.70540430        4.86786360        1.36712050
C        7.60617500        2.29117280        0.41949636
C        8.45300930        3.09300230        1.33764880
C        7.53379510        3.92452250        9.32466600
C        8.39677380        4.88957110       10.12217600
C        5.78088190        2.23298630        2.17077260
C        6.61407470        3.07660900        3.17695530
C        7.57006110        2.12754230        3.99778900
C        8.46667880        3.05150790        4.92133040
C        7.56346270        4.02651750        2.32653030
C        8.38184860        4.87501610        3.10017340
C        5.81356700        2.28450140        5.76507480
C        6.62589030        3.06104770        6.71212220
C        5.81310140        3.97729780        7.51805680
C        6.66723950        4.84162280        8.45727540
C        7.51141240        2.18878130        7.53029880
C        8.38127640        3.07237020        8.46902710
C        7.66774110        3.92351790        5.82255120
C        8.40463950        4.86502350        6.64953270
C        5.72243400        5.79314140        9.29937540
C        6.65127560        6.60662940       10.21652800
C        5.81474880        7.51818820        0.46249913
C        6.65601770        8.35055440        1.36998140
C        7.51547910        5.81071750        0.46948898
C        8.48741010        6.70194140        1.33448090
C        7.52342130        7.57328180        9.38891070
C        8.40867250        8.43278910       10.23750000
C        5.80443130        5.73553990        2.29913620
C        6.72132240        6.58598910        3.09918870
C        5.80170150        7.60731890        3.95643810
C        6.65887470        8.47537180        4.87727080
C        7.58004700        5.80365220        3.97588940
C        8.46091830        6.60709840        4.85998110
C        7.60114860        7.45656870        2.25262210
C        8.42300230        8.45132680        3.13334940
C        5.70603850        5.83642080        5.83025120
C        6.58865380        6.66040100        6.64703090
C        5.73194780        7.59353080        7.54823710
C        6.68445210        8.40642860        8.46913080
C        7.47692810        5.78615970        7.53279220
C        8.43141450        6.63635660        8.43996110
C        7.53945040        7.54738970        5.72120150
C        8.31277380        8.43093740        6.66763440
N        5.62488640        3.92307560        3.91634420
