&CONTROL
calculation = 'scf'
restart_mode = 'from_scratch'
verbosity = 'high'
wf_collect = .true.
pseudo_dir='/home/arpank/pseudopotentials/'
tprnfor = .true.
/
&SYSTEM
ibrav = 0
ecutwfc = 60
tot_charge = -1
nspin = 2
tot_magnetization = 2.0
nbnd = 480
nat = 215
ntyp = 2
input_dft = 'PBE0'
exx_fraction = 0.18
ecutfock = 120
/
&ELECTRONS
conv_thr = 1D-8
diago_full_acc=.true.
mixing_beta = 0.3
/
&IONS
ion_dynamics='bfgs'
ion_positions='default'
/
K_POINTS gamma
ATOMIC_SPECIES
C  12.01099968  C_ONCV_PBE-1.0.upf
N  14.00699997  N_ONCV_PBE-1.0.upf
CELL_PARAMETERS angstrom
    10.65000000      0.00000000      0.00000000
     0.00000000     10.65000000      0.00000000
     0.00000000      0.00000000     10.65000000
ATOMIC_POSITIONS angstrom
C        9.41612860        9.31993830        9.25810560
C       10.20575000       10.18016300       10.17563100
C        9.30329960        0.44073812        0.39908396
C       10.16598800        1.39262580        1.37986310
C        0.41501250        9.31840340        0.38241458
C        1.26901940       10.20282300        1.39950540
C        0.45653048        0.50022906        9.36424220
C        1.33500150        1.35491790       10.24469600
C        9.30891190        9.29309360        2.15667140
C       10.16403400       10.19198900        3.15934570
C        9.25738040        0.43360660        3.95834460
C       10.17845500        1.37158230        4.79791340
C        0.38382189        9.22907590        3.97949650
C        1.29836870       10.16340200        4.86811050
C        0.44665692        0.52505082        2.18555270
C        1.33986690        1.32399660        3.06448270
C        9.39372090        9.28606080        5.73799030
C       10.21710200       10.20307900        6.65105330
C        9.32947250        0.49134217        7.51552360
C       10.20711200        1.38521670        8.41254520
C        0.50392941        9.38798320        7.56262330
C        1.37936080       10.21813500        8.50354590
C        0.40063833        0.44778650        5.77094490
C        1.28705010        1.33701120        6.65614200
C        9.37701190        2.22654650        9.34986760
C       10.22400900        3.09862360       10.25776000
C        9.30975380        3.98450690        0.49876316
C       10.26603500        4.95417250        1.37462630
C        0.41458158        2.19980450        0.37839072
C        1.33863970        3.13585410        1.36185980
C        0.41075605        4.04869480        9.27029540
C        1.37191590        4.88247900       10.19427900
C        9.28517770        2.20767330        2.26330240
C       10.19646700        3.15662340        3.05056540
C        9.28384730        4.01468910        3.93334990
C       10.16700000        4.85612950        4.88352800
C        0.37366915        2.19322780        3.92042710
C        1.31536030        3.08913960        4.93028500
C        0.47171858        4.04754390        2.25734260
C        1.32972410        4.90782510        3.14233250
C        9.29543460        2.22467720        5.67118780
C       10.23944800        3.12819200        6.61664580
C        9.29117960        4.01242410        7.62680250
C       10.24373800        4.97404050        8.50067220
C        0.44205243        2.28007690        7.54852230
C        1.31517420        3.17737410        8.39597650
C        0.45804936        4.04976240        5.76998240
C        1.33702510        4.90366280        6.62834600
C        9.31711080        5.81075240        9.35441250
C       10.21303600        6.65436530       10.16960400
C        9.31327920        7.54154490        0.34107145
C       10.14531900        8.36693290        1.29779520
C        0.51002061        5.74098030        0.41166798
C        1.36534930        6.65621960        1.33732200
C        0.51547371        7.50870300        9.28315160
C        1.28038410        8.43294890       10.17080900
C        9.28367430        5.80354810        2.21610890
C       10.22648200        6.64602810        3.16442090
C        9.31303120        7.52454820        4.05587180
C       10.20452400        8.39875140        4.86932840
C        0.48509057        5.77929180        3.98253740
C        1.31101840        6.63397280        4.90513680
C        0.42433846        7.51027500        2.15334580
C        1.32154540        8.36396280        3.10649090
C        9.32549710        5.73074810        5.72506690
C       10.21722600        6.64439070        6.58725200
C        9.36365160        7.57275520        7.49410790
C       10.26549800        8.43234260        8.30325940
C        0.43218677        5.71318970        7.52371900
C        1.31173920        6.70564710        8.40187400
C        0.46973054        7.43332880        5.79441320
C        1.36625810        8.36601560        6.68886390
C        2.27383270        9.28963260        9.41953860
C        3.13911680       10.23835000       10.22452900
C        2.24328140        0.36473846        0.44623363
C        3.09947760        1.34034460        1.30741690
C        4.06063490        9.30381820        0.46507768
C        4.86354150       10.19756900        1.42003780
C        3.94635500        0.46059562        9.32753820
C        4.91964990        1.34997430       10.23150400
C        2.14513060        9.31808170        2.23661720
C        3.10087250       10.16305400        3.03960500
C        2.15294960        0.48039508        3.97387520
C        3.10999090        1.31895170        4.94946180
C        3.94291800        9.26918010        4.04302340
C        4.86426390       10.20981500        4.96286190
C        3.99360740        0.42232151        2.21022770
C        4.83496270        1.28071820        3.12086770
C        2.21784560        9.32433030        5.79122410
C        3.06418280       10.21148700        6.69060380
C        2.24141340        0.47901960        7.56602270
C        3.09240090        1.33765010        8.37810060
C        4.00306040        9.34681820        7.56255170
C        4.88469230       10.21448100        8.50898110
C        4.00131900        0.40900303        5.79575370
C        4.84102040        1.31222610        6.65189630
C        2.25454790        2.23636320        9.33528610
C        3.12375870        3.10648780       10.19512900
C        2.23441420        4.01134660        0.40559609
C        3.17715350        4.91097760        1.25431920
C        3.98145600        2.18310270        0.42840006
C        4.90030590        3.06863130        1.36562870
C        3.98855510        4.04452510        9.26550630
C        4.88919400        4.83115440       10.27628700
C        2.20916910        2.22819850        2.18905720
C        3.08207890        3.08769280        3.10960420
C        2.25756980        3.98637220        3.99062200
C        3.13032340        4.82187010        4.90372280
C        3.92777160        2.20902080        3.97501550
C        4.82910350        3.00161860        4.80379230
C        3.99016920        3.99622960        2.15209530
C        4.85512100        4.86290460        3.03230940
C        2.28934300        2.26243350        5.81661870
C        3.10525520        3.09758900        6.62060460
C        2.23326690        4.02602340        7.55916800
C        3.13890780        4.85703410        8.41566830
C        4.02247750        2.23705190        7.50399580
C        4.90988170        3.18223110        8.42505460
C        4.05481850        4.04602580        5.72411560
C        5.00835590        4.91944550        6.59580690
C        2.25163670        5.73576960        9.32185970
C        3.15706400        6.64638780       10.20453600
C        2.24761090        7.60325760        0.40148396
C        3.02679260        8.41765160        1.36926950
C        4.01359560        5.67987160        0.46014141
C        4.86117690        6.70215440        1.31500100
C        4.05950800        7.46348330        9.29753880
C        4.85727010        8.41042030       10.15331800
C        2.18623540        5.80395630        2.23261240
C        3.06970840        6.59342590        3.11420090
C        2.18156860        7.55025590        4.01309480
C        3.05042030        8.47314700        4.84656730
C        3.98592230        5.67046480        4.06954880
C        4.88041270        6.64483480        4.95444550
C        3.98324030        7.54935500        2.21400900
C        4.90014870        8.42387860        3.16453350
C        2.25998620        5.77017370        5.81696780
C        3.15883520        6.69853440        6.61134200
C        2.18916190        7.50157840        7.50803310
C        3.11980360        8.41271630        8.46270380
C        3.97356130        5.78832620        7.49269220
C        4.85929000        6.66607810        8.44565780
C        3.99109770        7.53654320        5.81627580
C        4.87062260        8.45064490        6.71316900
C        5.78103750        9.30636570        9.39213810
C        6.63809560       10.18841300       10.23149500
C        5.81198400        0.44807102        0.47372567
C        6.71885600        1.30978100        1.39648910
C        7.56432300        9.34143180        0.51793780
C        8.47574470       10.17298300        1.30380360
C        7.54151610        0.42577078        9.21878370
C        8.43856360        1.29566280       10.14110800
C        5.81290510        9.18031180        2.25444970
C        6.68886180       10.22162800        3.03074140
C        5.75720040        0.45784120        3.99148010
C        6.68791000        1.31048920        4.94464220
C        7.51152510        9.34020090        4.00957870
C        8.39403390       10.22769900        4.84678310
C        7.59399120        0.45545277        2.25660420
C        8.48056830        1.35313370        3.11773990
C        5.77112570        9.32084220        5.81768200
C        6.65816650       10.24839800        6.60576470
C        5.72887120        0.42619962        7.47511990
C        6.63895020        1.37515110        8.34791840
C        7.61520790        9.30048260        7.54504970
C        8.42662650       10.21619300        8.42997070
C        7.61433930        0.48189101        5.73527880
C        8.43130100        1.37672280        6.66568260
C        5.75875400        2.22529680        9.26003730
C        6.68579660        3.15396480       10.17578600
C        5.81488480        3.98137770        0.47097752
C        6.62264470        4.85901620        1.39479260
C        7.51254480        2.20143370        0.41648345
C        8.37947260        2.98471440        1.33951130
C        7.50793100        4.05915730        9.30198580
C        8.46812980        4.82587770       10.19681900
C        5.79340140        2.11342880        2.24452220
C        6.55181440        3.13140010        3.05198760
C        7.45077430        2.20629490        3.95426960
C        8.38414750        3.14003660        4.88132090
C        7.48178500        3.97659180        2.24471620
C        8.34578000        4.90788590        3.09243690
C        5.73158940        2.26923220        5.80929550
C        6.72886080        3.16407940        6.62007160
C        5.80904790        3.97583930        7.57812220
C        6.58183820        4.89485280        8.38459570
C        7.53905650        2.30338010        7.54039180
C        8.41790840        3.15316700        8.45048940
C        7.52873680        3.92288790        5.85167660
C        8.40857300        4.89161320        6.60602890
C        5.77445110        5.83583120        9.30294160
C        6.61740910        6.64924570       10.23396000
C        5.75201100        7.48152760        0.42675901
C        6.65631110        8.33319000        1.29725590
C        7.51608670        5.78809590        0.49442186
C        8.45620020        6.64505850        1.36191780
C        7.59004130        7.59974020        9.35451570
C        8.42162260        8.41194200       10.17332800
C        5.75716400        5.85143890        2.27825830
C        6.64445800        6.64603410        3.14355570
C        5.77318290        7.52705810        4.04820620
C        6.56833880        8.40667790        4.97635480
C        7.60995560        5.91556210        4.00991860
C        8.47702480        6.67898630        4.92220340
C        7.56491730        7.51765640        2.18397480
C        8.46252010        8.42989740        3.13709950
C        5.77277100        5.85748890        5.88598820
C        6.63719750        6.69782820        6.71356600
C        5.75117890        7.55098790        7.66327080
C        6.68451280        8.38810590        8.45693240
C        7.54459740        5.77521820        7.56280060
C        8.45186480        6.70326090        8.40840420
C        7.47853440        7.50892540        5.69664500
C        8.47759720        8.35233020        6.65011610
N        5.65596000        3.87532850        3.90667450
