&CONTROL
calculation = 'scf'
restart_mode = 'from_scratch'
verbosity = 'high'
wf_collect = .true.
pseudo_dir='/home/arpank/pseudopotentials/'
tprnfor = .true.
/
&SYSTEM
ibrav = 0
ecutwfc = 60
tot_charge = -1
nspin = 2
tot_magnetization = 2.0
nbnd = 480
nat = 215
ntyp = 2
input_dft = 'PBE0'
exx_fraction = 0.18
ecutfock = 120
/
&ELECTRONS
conv_thr = 1D-8
diago_full_acc=.true.
mixing_beta = 0.3
/
&IONS
ion_dynamics='bfgs'
ion_positions='default'
/
K_POINTS gamma
ATOMIC_SPECIES
C  12.01099968  C_ONCV_PBE-1.0.upf
N  14.00699997  N_ONCV_PBE-1.0.upf
CELL_PARAMETERS angstrom
    10.65000000      0.00000000      0.00000000
     0.00000000     10.65000000      0.00000000
     0.00000000      0.00000000     10.65000000
ATOMIC_POSITIONS angstrom
C        9.34506490        9.29037740        9.32112480
C       10.19639800       10.24950300       10.21889000
C        9.29391360        0.52032518        0.43749710
C       10.28673400        1.30043460        1.38104870
C        0.37762972        9.26039230        0.38084181
C        1.34568510       10.22414100        1.40719720
C        0.44320225        0.48616198        9.35670250
C        1.37765340        1.38926070       10.22015200
C        9.30219340        9.31372780        2.18466430
C       10.18325200       10.16207800        3.15439310
C        9.29247070        0.50000011        3.96094390
C       10.22359000        1.36112270        4.88665110
C        0.39511342        9.34234680        4.00574020
C        1.37479230       10.21622500        4.86847680
C        0.45024818        0.46613273        2.20804800
C        1.25806020        1.34121750        3.07660610
C        9.36924320        9.22389740        5.73862640
C       10.22130900       10.15759800        6.63621680
C        9.36300760        0.37060453        7.52192610
C       10.24245200        1.42786650        8.50027540
C        0.43290628        9.30979040        7.54282960
C        1.38886430       10.16638200        8.44337890
C        0.46389225        0.43941420        5.90159080
C        1.34566070        1.34629240        6.69311570
C        9.35094470        2.20523390        9.40395810
C       10.24719000        3.08175950       10.28440800
C        9.38054640        3.98872400        0.46035841
C       10.20291800        4.91389430        1.36605330
C        0.58847535        2.23477150        0.46489580
C        1.35816880        3.17414710        1.30747320
C        0.42411444        3.99719460        9.30410560
C        1.26940500        4.89367760       10.25319300
C        9.31527860        2.16363870        2.26757790
C       10.24029800        3.13688290        3.17122250
C        9.36258130        3.99756580        4.07849620
C       10.23844200        4.90842830        4.87446630
C        0.48228546        2.31148020        4.03899860
C        1.38231550        3.14224160        4.86070850
C        0.44911097        4.08697560        2.24816450
C        1.37147120        4.96039140        3.08846150
C        9.34492550        2.19904070        5.77708940
C       10.22683700        3.10602360        6.68102480
C        9.43015950        3.97891200        7.57483590
C       10.22627900        4.83383080        8.44663480
C        0.42525116        2.30282280        7.53298450
C        1.28560780        3.11870570        8.42031910
C        0.46485882        4.01438230        5.74032800
C        1.31637290        4.95810610        6.59318730
C        9.29659360        5.77379370        9.38033890
C       10.27438200        6.67889120       10.13071000
C        9.26474650        7.54363910        0.42068504
C       10.12845400        8.47299330        1.26975020
C        0.40860393        5.85501940        0.46814018
C        1.31019080        6.69915100        1.36347790
C        0.43075771        7.61649890        9.28432720
C        1.25866720        8.49527000       10.19036400
C        9.29793970        5.73141140        2.20389230
C       10.21569600        6.62509450        3.04941590
C        9.25491990        7.53283680        4.02936250
C       10.22560100        8.36947810        4.92583260
C        0.48251490        5.74393800        4.03018490
C        1.30621460        6.70652590        4.79552760
C        0.42109113        7.55023370        2.24318750
C        1.29240800        8.46213880        3.08322050
C        9.37088990        5.81112900        5.72304770
C       10.25074300        6.71041510        6.63017200
C        9.28662160        7.55257280        7.50079080
C       10.13457700        8.39688410        8.48480520
C        0.42901459        5.80597490        7.52733390
C        1.33576280        6.70851630        8.39311470
C        0.48069442        7.57232500        5.73007200
C        1.34865640        8.42423000        6.67394200
C        2.22236820        9.24569580        9.35211650
C        3.13055520       10.17567900       10.25023200
C        2.22336390        0.45758388        0.37911048
C        3.07349540        1.35595350        1.26549120
C        3.91706420        9.26973870        0.49401019
C        4.91302350       10.18398100        1.31809260
C        4.05788830        0.41372050        9.31334510
C        4.92272610        1.40126330       10.15682100
C        2.14725240        9.33744350        2.16717690
C        3.07239470       10.17700500        3.04642130
C        2.28431360        0.39341573        4.01937260
C        3.12838270        1.30658760        4.85716400
C        3.96201330        9.31417860        4.01092500
C        4.82518890       10.18718700        4.90535300
C        3.93955370        0.48137921        2.17649740
C        4.82118310        1.29728680        3.10737700
C        2.23162610        9.23629370        5.77118200
C        3.10051950       10.18324800        6.67185530
C        2.15335040        0.48449086        7.61367930
C        3.08397070        1.29497330        8.42908120
C        4.00135120        9.37489340        7.61067650
C        4.86081020       10.18309500        8.51917790
C        3.93054960        0.43147716        5.85185860
C        4.83644050        1.31966790        6.66157050
C        2.22455520        2.19736640        9.36373000
C        3.11661120        3.14202220       10.12255700
C        2.24858130        4.00580710        0.44393623
C        3.14765210        4.89568500        1.36590200
C        4.07524910        2.22739600        0.39346860
C        4.88885200        3.10362810        1.41845210
C        4.00494530        3.99685810        9.28191410
C        4.88182080        4.87953390       10.19566700
C        2.13677940        2.22185350        2.17434090
C        3.08750060        3.08716810        3.10205410
C        2.23200430        4.02204860        4.00347300
C        3.09469830        4.88255620        4.94423290
C        3.99961240        2.22514740        4.03028930
C        4.81839000        3.13424110        4.83977180
C        3.95256030        3.94187910        2.15756170
C        4.86468130        4.78744530        3.07134460
C        2.22115770        2.21677030        5.77658880
C        3.12008670        3.10076670        6.72957470
C        2.23952290        4.00086120        7.49757780
C        3.10224980        4.84156820        8.41169160
C        4.00878040        2.20363340        7.52846020
C        4.90859000        3.07644640        8.38565170
C        4.00298820        3.91586150        5.74622500
C        4.92389620        4.84878340        6.61347900
C        2.21271080        5.78566840        9.29331130
C        3.09003790        6.66233100       10.25877100
C        2.14902100        7.50229520        0.46865661
C        3.02568170        8.41305000        1.31412820
C        3.96526610        5.79129100        0.40196209
C        4.82750460        6.58836520        1.35284840
C        4.05669870        7.59450940        9.30751700
C        4.88982750        8.42914400       10.21783000
C        2.25873760        5.76077950        2.16607160
C        3.08977270        6.66106910        3.11877730
C        2.23576150        7.54698110        3.96337240
C        3.10386100        8.41578610        4.86360860
C        4.01015270        5.63341990        3.96876730
C        4.91373780        6.59116700        4.87627740
C        4.04660350        7.49927860        2.23229420
C        4.90493900        8.45916190        3.11027760
C        2.20774540        5.82338370        5.71119470
C        3.10398170        6.65947110        6.66739720
C        2.16149110        7.49228570        7.52874620
C        3.07964820        8.42049510        8.46362470
C        3.94673360        5.73624670        7.49878270
C        4.88581330        6.66486370        8.40698090
C        3.97151220        7.52473340        5.72176930
C        4.83473810        8.44234820        6.69218080
C        5.73855420        9.35377910        9.32791280
C        6.70021850       10.21744900       10.19494200
C        5.83767630        0.46171946        0.48572837
C        6.64768600        1.38962140        1.34869970
C        7.50101980        9.34020320        0.50327422
C        8.43188700       10.15034700        1.32331870
C        7.62941040        0.37588426        9.28687920
C        8.38437360        1.24414990       10.15481100
C        5.78976040        9.29071240        2.17060130
C        6.71101550       10.19731900        3.01945270
C        5.77461300        0.43753831        3.97243040
C        6.59872240        1.27656230        4.89487250
C        7.56270240        9.23632440        3.99304900
C        8.42316330       10.22111700        4.83990450
C        7.48297830        0.47183425        2.16404100
C        8.44520330        1.32403510        3.17901210
C        5.74537590        9.32004010        5.77928140
C        6.68886210       10.18583900        6.60593120
C        5.78471630        0.49073412        7.49433280
C        6.66411190        1.24153670        8.36761950
C        7.54195250        9.32486380        7.53819950
C        8.46087520       10.16248000        8.36806070
C        7.48893030        0.37583847        5.73223430
C        8.43664950        1.31409800        6.64863840
C        5.85836720        2.23849510        9.27895480
C        6.71043050        3.12369230       10.24087000
C        5.79695010        3.96366560        0.44059498
C        6.67208900        4.89765460        1.34623780
C        7.54892900        2.27760680        0.51891292
C        8.49175220        3.12255000        1.33865160
C        7.56987400        3.97634580        9.31396740
C        8.43373210        4.82803020       10.19405500
C        5.76254510        2.19042990        2.25619500
C        6.56799210        3.10025150        3.16226700
C        7.48582650        2.28238360        3.96690560
C        8.40954490        3.14310590        4.95247530
C        7.55466930        3.98537190        2.26698880
C        8.39999900        4.97668580        3.15776280
C        5.75678820        2.22739480        5.75397810
C        6.68497250        3.12015740        6.68400450
C        5.75670110        4.00560730        7.46299150
C        6.70706630        4.85192650        8.51295230
C        7.57137210        2.17320740        7.57902190
C        8.41043380        3.10032460        8.46547130
C        7.61720960        3.98368500        5.82658640
C        8.51799520        4.93481930        6.62558070
C        5.72322630        5.81489290        9.32407650
C        6.73574700        6.58698510       10.20161000
C        5.79156850        7.49114330        0.48380496
C        6.67999160        8.42796780        1.31939440
C        7.57157570        5.72585300        0.46703053
C        8.43847840        6.68461580        1.31833200
C        7.47965170        7.56612290        9.30104600
C        8.46732830        8.42942420       10.21208300
C        5.77151430        5.71173750        2.15932650
C        6.56336660        6.67818810        3.11484060
C        5.74887740        7.51235630        3.99226570
C        6.59666230        8.38082490        4.88464320
C        7.50090750        5.88061480        3.92844880
C        8.46970840        6.70811970        4.85528850
C        7.53447270        7.56564940        2.23420770
C        8.42944750        8.39897710        3.16275230
C        5.66357840        5.79099520        5.85521250
C        6.62258880        6.64757360        6.60814530
C        5.79331370        7.50248740        7.52974260
C        6.61920830        8.43581850        8.44959110
C        7.50935090        5.85040840        7.50691880
C        8.48248030        6.69008050        8.46428870
C        7.51912820        7.58446340        5.73650070
C        8.45494280        8.48055160        6.60379880
N        5.64936000        3.89395400        3.89805190
