&CONTROL
calculation = 'scf'
restart_mode = 'from_scratch'
verbosity = 'high'
wf_collect = .true.
pseudo_dir='/home/arpank/pseudopotentials/'
tprnfor = .true.
/
&SYSTEM
ibrav = 0
ecutwfc = 60
tot_charge = -1
nspin = 2
tot_magnetization = 2.0
nbnd = 480
nat = 215
ntyp = 2
input_dft = 'PBE0'
exx_fraction = 0.18
ecutfock = 120
/
&ELECTRONS
conv_thr = 1D-8
diago_full_acc=.true.
mixing_beta = 0.3
/
&IONS
ion_dynamics='bfgs'
ion_positions='default'
/
K_POINTS gamma
ATOMIC_SPECIES
C  12.01099968  C_ONCV_PBE-1.0.upf
N  14.00699997  N_ONCV_PBE-1.0.upf
CELL_PARAMETERS angstrom
    10.65000000      0.00000000      0.00000000
     0.00000000     10.65000000      0.00000000
     0.00000000      0.00000000     10.65000000
ATOMIC_POSITIONS angstrom
C        9.31251840        9.33077080        9.36578940
C       10.17902100       10.27776000       10.20715200
C        9.29933920        0.46788952        0.40987215
C       10.24820800        1.35583520        1.27656790
C        0.46383383        9.37669080        0.46750729
C        1.42752880       10.19698200        1.31681400
C        0.46112222        0.45076569        9.34345500
C        1.35677900        1.37189720       10.19081000
C        9.30661800        9.30699400        2.27058880
C       10.22809800       10.21547500        3.12371200
C        9.30807130        0.48050357        3.95597150
C       10.25150600        1.40245670        4.88905200
C        0.44173068        9.33165050        3.96141350
C        1.35761840       10.23063900        4.90660280
C        0.44000244        0.45980968        2.25373690
C        1.31434690        1.39867100        3.10128660
C        9.30662260        9.37199230        5.77726160
C       10.21757000       10.21352300        6.65769870
C        9.22491150        0.41782860        7.57190480
C       10.17575700        1.29684970        8.45774270
C        0.40530040        9.39380350        7.50946400
C        1.29311670       10.29266100        8.37650950
C        0.43887000        0.43870970        5.78710500
C        1.28887060        1.41010340        6.63045160
C        9.31012030        2.21407680        9.34529060
C       10.18730400        3.13019420       10.19737400
C        9.25823370        4.01346420        0.46549559
C       10.23693700        4.89561030        1.40355710
C        0.46003808        2.24119280        0.39108747
C        1.35875570        3.15831510        1.37842780
C        0.35461371        4.05037130        9.33737210
C        1.23689720        4.90374330       10.19734200
C        9.33172320        2.23092440        2.23411310
C       10.24301500        3.09224550        3.15683530
C        9.28418920        4.05473160        4.02405270
C       10.21806200        4.86352120        4.88237460
C        0.47967281        2.26811620        3.96369710
C        1.30726390        3.08128690        4.88552820
C        0.42993284        4.06624820        2.22337600
C        1.39495310        4.80668690        3.10311400
C        9.34265010        2.19089130        5.77674620
C       10.26262100        3.16323310        6.63661290
C        9.36193850        3.96595940        7.50048900
C       10.18282100        4.89724350        8.46292960
C        0.35615176        2.20974630        7.60990470
C        1.26833030        3.17346180        8.36940730
C        0.46473865        3.99026260        5.72054860
C        1.40529630        4.89621930        6.64261710
C        9.31771290        5.79501610        9.34606530
C       10.26160500        6.71353170       10.26027100
C        9.38009620        7.54539890        0.46047355
C       10.21740800        8.43234410        1.47460740
C        0.43281880        5.77777610        0.47557742
C        1.31867660        6.63857310        1.25480750
C        0.45845049        7.59354260        9.34178390
C        1.27811170        8.44345320       10.19965200
C        9.28125130        5.80445650        2.24839630
C       10.20229300        6.68903160        3.09524870
C        9.35882260        7.53091760        3.96895870
C       10.22000900        8.46507480        4.92215220
C        0.47964414        5.74055260        3.97469490
C        1.41523010        6.63744490        4.88543510
C        0.53136724        7.47746300        2.26990460
C        1.43393810        8.41594910        3.11239650
C        9.29485830        5.72073930        5.77189000
C       10.23696500        6.59048450        6.67153910
C        9.38528020        7.48478520        7.49721390
C       10.21713300        8.44926630        8.48936870
C        0.41146120        5.77136490        7.56631210
C        1.32970070        6.62747380        8.35934780
C        0.46367615        7.59025000        5.70016420
C        1.35084190        8.42246670        6.62706410
C        2.17208960        9.40809270        9.34442070
C        3.12705110       10.18239700       10.16810700
C        2.22173870        0.50337205        0.38776051
C        3.16481160        1.31969830        1.30763420
C        3.95195280        9.26643500        0.48153325
C        4.88107860       10.11556800        1.38302950
C        3.99890640        0.45653868        9.24883880
C        4.91981490        1.36478440       10.24126500
C        2.21556580        9.29038460        2.19100660
C        3.09710720       10.15428200        3.05272570
C        2.21991510        0.48419023        4.01747500
C        3.06294330        1.31679580        4.98146440
C        3.98392820        9.30244590        4.03803500
C        4.83087490       10.15074600        4.86978190
C        4.01459590        0.42487368        2.14475910
C        4.85905730        1.30451460        3.15009270
C        2.15114640        9.33893190        5.83364980
C        3.07434780       10.23430300        6.65769430
C        2.18143960        0.44395419        7.50978980
C        3.07319680        1.32235650        8.34670180
C        3.98473600        9.29423660        7.56706420
C        4.88181750       10.19712100        8.40681450
C        4.00306230        0.43409900        5.79784500
C        4.91847820        1.37136750        6.63243820
C        2.17894160        2.25426190        9.38520440
C        3.09331320        3.15963130       10.21285000
C        2.13824200        3.99762520        0.46239718
C        3.09656810        4.84831090        1.33275210
C        4.01664290        2.20177800        0.38359195
C        4.84061810        3.14265160        1.28921510
C        3.99614380        3.99892620        9.28077160
C        4.95058090        4.78680940       10.13691500
C        2.27933230        2.17949190        2.18076210
C        3.09923150        3.08241590        3.12795500
C        2.19523350        4.03248670        4.00205750
C        3.10485070        4.84517540        4.83443820
C        3.96918510        2.24564250        4.04197970
C        4.86147470        3.05937270        4.83586860
C        4.04315260        3.97954650        2.18710550
C        4.90511820        4.73174140        3.13337350
C        2.15426510        2.23271160        5.80118230
C        3.03830540        3.05123660        6.64537980
C        2.19720850        3.99464350        7.55459090
C        3.16407240        4.87263450        8.45362230
C        3.96830270        2.19813530        7.48868700
C        4.87767670        3.11667800        8.38573950
C        3.89918530        3.93668420        5.77631590
C        4.86185880        4.87619660        6.62117260
C        2.18058330        5.83733860        9.24517480
C        3.09125930        6.61570380       10.24012000
C        2.17678540        7.52277780        0.49067355
C        3.06848740        8.42652270        1.28023200
C        4.01140030        5.74962990        0.38793733
C        4.85553800        6.64056320        1.32422040
C        4.04124350        7.50851510        9.25537140
C        4.93299750        8.40417430       10.21046700
C        2.20694550        5.73800980        2.19025590
C        3.13993800        6.58901530        3.14696180
C        2.22261040        7.59044660        3.93562440
C        3.06274580        8.42886060        4.84310590
C        3.99716400        5.66156310        4.02585640
C        4.88640410        6.64524710        4.96304050
C        3.99972470        7.56501590        2.31371350
C        4.95776860        8.41075440        3.12726760
C        2.29491900        5.82870490        5.73364940
C        3.08444000        6.69967840        6.59632480
C        2.21019290        7.55382700        7.54524380
C        3.08867750        8.48949730        8.42158740
C        3.93041600        5.81266150        7.51651130
C        4.89035550        6.63369080        8.44646100
C        3.98959390        7.56035150        5.75806780
C        4.85527980        8.50001880        6.65447700
C        5.77766670        9.33506540        9.34531890
C        6.59359470       10.14293800       10.16877700
C        5.72495230        0.32885320        0.43799782
C        6.65921210        1.29651440        1.31109760
C        7.55422020        9.34492370        0.50859010
C        8.45448920       10.29915900        1.30690750
C        7.54748700        0.37358426        9.32319090
C        8.45309310        1.31328310       10.22756200
C        5.78056390        9.31740240        2.22634750
C        6.69052470       10.28804400        3.12290360
C        5.71762530        0.45401438        3.94733890
C        6.58867610        1.38072930        4.76330820
C        7.60034880        9.31085760        3.96844740
C        8.43351560       10.18153600        4.91176650
C        7.57912110        0.43370800        2.23835200
C        8.41518580        1.29273860        3.12172230
C        5.75743420        9.33240180        5.77792270
C        6.62597410       10.23501900        6.68136730
C        5.75578340        0.46416436        7.53485100
C        6.66106150        1.25997320        8.42670370
C        7.50398750        9.27873070        7.49946910
C        8.31911950       10.20141600        8.45025110
C        7.53810350        0.46352524        5.72445290
C        8.49196450        1.40835050        6.66558210
C        5.83925960        2.18434940        9.29824410
C        6.64482680        3.03002960       10.21128500
C        5.80976640        3.92238740        0.44478920
C        6.66861020        4.88748690        1.41431980
C        7.55415980        2.12980020        0.49618352
C        8.41282510        3.16984430        1.36937640
C        7.47459230        3.90087500        9.34457060
C        8.46551750        4.88224110       10.21347600
C        5.80422910        2.23031320        2.17259990
C        6.67319710        3.09290660        3.11963390
C        7.51059000        2.22201590        3.90669780
C        8.41156550        3.10705480        4.88703930
C        7.51611900        3.98040460        2.23910280
C        8.37872460        4.82793050        3.13911810
C        5.79587110        2.25422160        5.69976960
C        6.65743200        3.24257990        6.62690910
C        5.78311760        3.99240880        7.57883250
C        6.66976730        4.89663520        8.46880980
C        7.60887760        2.25979350        7.48991580
C        8.39198490        3.16492600        8.40808190
C        7.59299020        3.98471330        5.75205960
C        8.39447060        4.78959960        6.66506260
C        5.79745460        5.80154430        9.27240040
C        6.66650160        6.65464380       10.22496200
C        5.81921240        7.55401280        0.50510757
C        6.72058590        8.41870200        1.38399470
C        7.52672000        5.69451690        0.40905605
C        8.44835270        6.67083770        1.32005120
C        7.54439520        7.50638710        9.34471270
C        8.44905800        8.44258290       10.26724000
C        5.72474020        5.72105380        2.24824220
C        6.57914040        6.62916500        3.18704700
C        5.78807230        7.51251200        4.07577530
C        6.74398000        8.41852390        4.90529790
C        7.56155250        5.79087350        4.08868590
C        8.46377680        6.64639970        4.79559560
C        7.57685360        7.56063690        2.22345360
C        8.47101440        8.40800550        3.09759530
C        5.72862000        5.81981980        5.76077930
C        6.68221820        6.62464420        6.63888590
C        5.75329530        7.54071120        7.53463010
C        6.64505910        8.46245020        8.38476010
C        7.54294400        5.76279290        7.56830110
C        8.43969000        6.65129170        8.43525710
C        7.50824710        7.48067090        5.79541520
C        8.51612840        8.46437760        6.67738480
N        5.70376030        3.87271090        3.88453300
