&CONTROL
calculation = 'scf'
restart_mode = 'from_scratch'
verbosity = 'high'
wf_collect = .true.
pseudo_dir='/home/arpank/pseudopotentials/'
tprnfor = .true.
/
&SYSTEM
ibrav = 0
ecutwfc = 60
tot_charge = -1
nspin = 2
tot_magnetization = 2.0
nbnd = 480
nat = 215
ntyp = 2
input_dft = 'PBE0'
exx_fraction = 0.18
ecutfock = 120
/
&ELECTRONS
conv_thr = 1D-8
diago_full_acc=.true.
mixing_beta = 0.3
/
&IONS
ion_dynamics='bfgs'
ion_positions='default'
/
K_POINTS gamma
ATOMIC_SPECIES
C  12.01099968  C_ONCV_PBE-1.0.upf
N  14.00699997  N_ONCV_PBE-1.0.upf
CELL_PARAMETERS angstrom
    10.65000000      0.00000000      0.00000000
     0.00000000     10.65000000      0.00000000
     0.00000000      0.00000000     10.65000000
ATOMIC_POSITIONS angstrom
C        9.30259040        9.29474050        9.34952450
C       10.19686300       10.19269500       10.25345200
C        9.35738390        0.38566190        0.43028505
C       10.21923600        1.29234990        1.35365760
C        0.51286444        9.39036260        0.49061899
C        1.29461550       10.16997200        1.36499070
C        0.48389828        0.42238520        9.38926930
C        1.31024980        1.37281330       10.13021800
C        9.29548340        9.34713630        2.23975180
C       10.12876300       10.23422600        3.11219580
C        9.27849680        0.53341841        4.04812760
C       10.24399800        1.33906500        4.97643790
C        0.42780599        9.30813600        3.99040160
C        1.32113290       10.19597200        4.90054030
C        0.42657687        0.37326712        2.32429120
C        1.31255380        1.32775960        3.17657030
C        9.28498130        9.29569770        5.77058000
C       10.20296900       10.19678400        6.70400950
C        9.31779470        0.45306598        7.48437010
C       10.19306700        1.34737410        8.42171280
C        0.41187050        9.31590330        7.51881590
C        1.26732730       10.24038900        8.40108360
C        0.46952999        0.46910431        5.78264630
C        1.31576720        1.34641790        6.63003680
C        9.33038430        2.15670500        9.30465080
C       10.27977100        3.10376050       10.21490300
C        9.42209760        3.95227010        0.45740565
C       10.21522200        4.86649210        1.29256890
C        0.50100550        2.16532730        0.46981002
C        1.33845160        3.07429350        1.33290580
C        0.48945242        3.97566640        9.24149820
C        1.35313840        4.86025780       10.18864300
C        9.31298490        2.23290770        2.21639560
C       10.15065100        3.05458650        3.10840310
C        9.30829680        4.05164960        4.03070790
C       10.18971700        4.88872850        4.82475620
C        0.40397641        2.19480580        4.04830390
C        1.28572530        3.21503550        4.88495800
C        0.50286731        4.00139250        2.27042760
C        1.31537680        4.94509180        3.12767450
C        9.31478390        2.21041810        5.76961310
C       10.21804500        3.07856440        6.74734270
C        9.27343510        3.95781310        7.54518020
C       10.19692800        4.86428360        8.44348260
C        0.45508058        2.27676500        7.55398480
C        1.36766360        3.15167940        8.46934960
C        0.42052291        4.02731340        5.76968770
C        1.36568060        4.95315150        6.65389090
C        9.32954460        5.70662690        9.26878520
C       10.21215600        6.66715420       10.21155800
C        9.33401210        7.57955620        0.52827475
C       10.29804300        8.44934210        1.45845330
C        0.40534656        5.77873000        0.46676172
C        1.28549420        6.66544540        1.32765470
C        0.48133683        7.58195160        9.32858730
C        1.24268950        8.44172100       10.14955100
C        9.29823990        5.80567570        2.20339540
C       10.11653500        6.62144620        3.09482780
C        9.27231380        7.50589640        4.02547060
C       10.19937700        8.48252080        4.86242990
C        0.45807382        5.77287260        3.94070090
C        1.32465410        6.71020510        4.90642560
C        0.43493487        7.55014760        2.18700670
C        1.34377890        8.42451970        3.08925370
C        9.26120210        5.82124830        5.70396500
C       10.19779100        6.72325710        6.66705670
C        9.36090000        7.53956880        7.51270950
C       10.17766500        8.36072490        8.45822640
C        0.32170841        5.75836840        7.57375570
C        1.31331820        6.65477200        8.41995690
C        0.44004784        7.59751100        5.71681460
C        1.25036430        8.45538160        6.61387740
C        2.19037200        9.31748050        9.26640720
C        3.10478570       10.19589200       10.18030800
C        2.24570060        0.40058250        0.43334038
C        3.19044630        1.29940390        1.35501550
C        3.99996310        9.32152900        0.41707440
C        4.89393880       10.22531000        1.24065600
C        4.03316470        0.43190083        9.34376750
C        4.84590000        1.36411870       10.17544700
C        2.24924940        9.35854990        2.24622910
C        3.09712250       10.27305500        3.07739010
C        2.26451310        0.45047338        4.00815580
C        3.11362930        1.36953820        4.83441800
C        3.97277130        9.31387330        3.98841220
C        4.84197630       10.20463800        4.86872280
C        4.02741030        0.43683813        2.27012850
C        4.92937170        1.32958150        3.14453940
C        2.21069320        9.32260960        5.71507950
C        3.06850910       10.26272100        6.64848480
C        2.17251200        0.40866288        7.57373670
C        3.13936780        1.28817850        8.46038200
C        4.03646500        9.32761270        7.59557070
C        4.85009040       10.18096700        8.47146430
C        4.01741450        0.41443602        5.76732120
C        4.91092910        1.34768710        6.66385710
C        2.26095580        2.20275610        9.33562660
C        3.11873430        3.04845820       10.24189400
C        2.18597550        3.94832180        0.44113254
C        3.06898250        4.91202610        1.35930590
C        4.00523010        2.19603370        0.47603851
C        4.82704010        3.18486980        1.35602490
C        4.01817800        3.95187900        9.30994190
C        4.84145020        4.91097510       10.18029400
C        2.20506270        2.22819890        2.27729510
C        3.10294350        3.11801390        3.14177550
C        2.17567080        4.02694880        4.01327030
C        3.13358250        4.94398450        4.90090780
C        3.99847390        2.19726280        3.99963640
C        4.82219100        3.06397480        4.90328030
C        3.91799900        4.04633020        2.21918970
C        4.83356280        4.81625260        3.09507810
C        2.20531150        2.26015870        5.79303320
C        3.07275310        3.11379690        6.70214800
C        2.20710470        4.00414280        7.52264000
C        3.10808950        4.90170970        8.44481570
C        3.98836120        2.20706080        7.55016530
C        4.83192150        3.07899800        8.39218460
C        4.00860480        3.96816750        5.71738680
C        4.88626540        4.85074580        6.51325610
C        2.16403460        5.75730850        9.25429310
C        3.06302010        6.64512820       10.13384500
C        2.20634780        7.49875740        0.42179416
C        3.15500290        8.44092120        1.32612160
C        3.92503790        5.73828690        0.44135738
C        4.87626390        6.61423610        1.27991810
C        4.03610480        7.59551350        9.30731990
C        4.87119790        8.39579620       10.19433500
C        2.25237710        5.81192610        2.27018580
C        3.13722900        6.70080500        3.08855970
C        2.27743720        7.57221150        3.96132720
C        3.17025340        8.45196710        4.82604800
C        4.05559530        5.78567680        4.01430570
C        4.94446600        6.66960490        4.89115390
C        4.01365750        7.41300140        2.25364700
C        4.82601930        8.39050040        3.11640230
C        2.21135600        5.82074950        5.70752980
C        3.12688860        6.65183430        6.56535150
C        2.15941050        7.49118400        7.52086600
C        3.05146920        8.40099940        8.42694510
C        4.03415490        5.69728800        7.55744440
C        4.88054850        6.63007590        8.40647970
C        4.01531510        7.52192300        5.75531610
C        4.80748210        8.41000030        6.56139550
C        5.89832540        9.31369320        9.34161790
C        6.71546440       10.14411900       10.31460800
C        5.77887420        0.52405920        0.41848137
C        6.72022610        1.31151820        1.33207780
C        7.51290640        9.27458170        0.50098707
C        8.42782480       10.17619700        1.30666620
C        7.53871230        0.37014116        9.32355660
C        8.48660610        1.33452530       10.16806900
C        5.77644660        9.36124590        2.17460090
C        6.65795540       10.34295200        3.12460720
C        5.77818960        0.49175634        3.98401820
C        6.70483230        1.38913800        4.93300520
C        7.62718680        9.31710060        4.01310160
C        8.50239980       10.22978200        4.91063250
C        7.55875190        0.48173940        2.18711110
C        8.44414010        1.39033870        3.15688250
C        5.80792150        9.35087610        5.77271270
C        6.68832770       10.32111600        6.63395850
C        5.85985520        0.46607117        7.51414230
C        6.69484150        1.35209970        8.34875460
C        7.59752710        9.29919000        7.51125820
C        8.45583130       10.20026400        8.44228570
C        7.69309640        0.43250255        5.73643920
C        8.37882090        1.30716710        6.66234540
C        5.75808970        2.27932300        9.29823850
C        6.67756480        3.14163570       10.17503600
C        5.72599350        4.01634310        0.46336951
C        6.63782250        4.81482050        1.29074590
C        7.59063000        2.20537230        0.49606449
C        8.38499850        3.06257420        1.33857330
C        7.53346170        3.97033050        9.28345710
C        8.46143630        4.84366160       10.15902700
C        5.73434220        2.19383300        2.15031600
C        6.52460160        3.00537060        3.09737790
C        7.49973450        2.25266320        3.99220030
C        8.43226580        3.11023890        4.94218000
C        7.49660910        3.96518700        2.26101260
C        8.39612560        4.84774720        3.10429950
C        5.74371180        2.22917980        5.76249730
C        6.64505860        3.16290140        6.67986500
C        5.79194320        4.04356930        7.51538980
C        6.65241690        4.91095210        8.43417690
C        7.53144680        2.15299920        7.56677720
C        8.45548300        3.08225080        8.44312270
C        7.54767960        3.94725330        5.82032500
C        8.39701550        4.86685030        6.63394130
C        5.76012710        5.78447230        9.31792010
C        6.66275950        6.69892250       10.26142900
C        5.75798560        7.45477770        0.48960984
C        6.64303670        8.44598780        1.32103990
C        7.59274470        5.75673280        0.39184425
C        8.45135700        6.63316410        1.26845480
C        7.58973930        7.54581020        9.32668080
C        8.42318940        8.48509540       10.24684500
C        5.84141470        5.73703120        2.16520730
C        6.63300240        6.61611110        3.06194700
C        5.85823450        7.49190010        3.96085220
C        6.67863810        8.42660400        4.86479170
C        7.54785410        5.80272740        4.01603910
C        8.45879410        6.64716420        4.87916490
C        7.53033130        7.57555000        2.14550530
C        8.43598970        8.41800210        3.14465880
C        5.79334170        5.82247250        5.76111640
C        6.62696950        6.63906860        6.63779010
C        5.70415680        7.53560080        7.55911320
C        6.72284760        8.45782640        8.41329080
C        7.58517340        5.78328890        7.58420430
C        8.41454510        6.59244910        8.44924570
C        7.46308200        7.54158560        5.83287020
C        8.38938320        8.38072410        6.70626990
N        5.62590600        3.87255200        3.94577680
