&CONTROL
calculation = 'scf'
restart_mode = 'from_scratch'
verbosity = 'high'
wf_collect = .true.
pseudo_dir='/home/arpank/pseudopotentials/'
tprnfor = .true.
/
&SYSTEM
ibrav = 0
ecutwfc = 60
tot_charge = -1
nspin = 2
tot_magnetization = 2.0
nbnd = 480
nat = 215
ntyp = 2
input_dft = 'PBE0'
exx_fraction = 0.18
ecutfock = 120
/
&ELECTRONS
conv_thr = 1D-8
diago_full_acc=.true.
mixing_beta = 0.3
/
&IONS
ion_dynamics='bfgs'
ion_positions='default'
/
K_POINTS gamma
ATOMIC_SPECIES
C  12.01099968  C_ONCV_PBE-1.0.upf
N  14.00699997  N_ONCV_PBE-1.0.upf
CELL_PARAMETERS angstrom
    10.65000000      0.00000000      0.00000000
     0.00000000     10.65000000      0.00000000
     0.00000000      0.00000000     10.65000000
ATOMIC_POSITIONS angstrom
C        9.28926430        9.28823250        9.30059910
C       10.16328100       10.15491100       10.22800000
C        9.30811260        0.51910827        0.43011852
C       10.24244600        1.32415380        1.33645360
C        0.49310882        9.31807020        0.45656889
C        1.33283380       10.17371900        1.32023280
C        0.45098010        0.45681295        9.28953480
C        1.26335720        1.37740180       10.18654600
C        9.27160350        9.33656620        2.20301190
C       10.16107000       10.19614100        3.14051790
C        9.30009760        0.43941676        4.01325980
C       10.23447800        1.30519350        4.85047670
C        0.42681621        9.28186950        4.05448000
C        1.28714900       10.20706200        4.85215180
C        0.45083479        0.41264527        2.21201170
C        1.34548140        1.37493810        3.09708640
C        9.33382890        9.30351210        5.80755460
C       10.26373600       10.23634400        6.69383590
C        9.31826890        0.41107210        7.53121710
C       10.23897600        1.32784770        8.40460510
C        0.50386975        9.41485120        7.60978040
C        1.39214300       10.26192500        8.37079440
C        0.39923842        0.44625749        5.79777580
C        1.40894760        1.30366710        6.69697970
C        9.26576240        2.26168360        9.29118820
C       10.17671900        3.12704490       10.14595200
C        9.34230920        4.02382470        0.49619884
C       10.21881400        4.90478400        1.37434290
C        0.46466172        2.30865660        0.46355271
C        1.34558570        3.08816100        1.42280160
C        0.41173978        4.00738640        9.37886030
C        1.33586910        4.96575060       10.12749400
C        9.35523420        2.27172240        2.21451000
C       10.24961000        3.15525910        3.13714010
C        9.32236060        4.04226420        3.97674060
C       10.23843900        4.83104960        4.97627800
C        0.47892468        2.18045390        3.94749430
C        1.32511330        3.07860180        4.92214850
C        0.50481852        3.93667670        2.29291580
C        1.36335930        4.86940470        3.10952980
C        9.30014900        2.19196970        5.79081080
C       10.24846600        3.10895690        6.73538690
C        9.36483130        4.05501550        7.62219410
C       10.18982400        4.95450190        8.44589420
C        0.46409244        2.21653800        7.55002540
C        1.30148450        3.18575880        8.45741180
C        0.43784665        3.91216690        5.75434250
C        1.32555230        4.85815800        6.62756800
C        9.30778450        5.74874940        9.39231190
C       10.23319400        6.64730690       10.19752800
C        9.33696120        7.51681680        0.37567534
C       10.18763800        8.43142610        1.36424260
C        0.47146924        5.74224960        0.38989566
C        1.31158410        6.60685470        1.33460600
C        0.43575664        7.56190620        9.33853040
C        1.29748400        8.42405200       10.22140500
C        9.30865480        5.68877340        2.25129060
C       10.23182100        6.61131810        3.11682920
C        9.38981810        7.54887080        4.04227990
C       10.21996000        8.40641640        4.88805950
C        0.45994908        5.69095110        4.04652760
C        1.32099960        6.67169090        4.97840590
C        0.44816384        7.49853520        2.22357500
C        1.29538520        8.47230120        3.05904280
C        9.30973710        5.82009780        5.91839640
C       10.19241600        6.67123670        6.73405010
C        9.25187790        7.59673910        7.59273120
C       10.25101200        8.48547810        8.47264190
C        0.41748558        5.78696560        7.60316990
C        1.27228630        6.71257540        8.47009780
C        0.40995319        7.52841740        5.82023630
C        1.37232370        8.50205280        6.68071390
C        2.22990980        9.34079240        9.33451640
C        3.11730880       10.14837900       10.17384200
C        2.19366030        0.41777625        0.34193200
C        3.12882900        1.29691330        1.27870790
C        4.00325330        9.25202390        0.37062421
C        4.92360940       10.16802400        1.20848560
C        4.06020860        0.46808751        9.32722810
C        4.85965310        1.37376420       10.23519900
C        2.18126400        9.37853290        2.22360580
C        3.09583350       10.20635600        3.14225080
C        2.20920840        0.42179197        3.99109210
C        3.04485030        1.32384120        4.84512910
C        3.94541270        9.27885000        4.06774290
C        4.86243200       10.24876300        4.95976500
C        4.01144950        0.40642058        2.17009580
C        4.88335380        1.36815040        3.12993560
C        2.27499150        9.39156720        5.73519290
C        3.18430270       10.17633700        6.67937070
C        2.29468740        0.46407272        7.48811070
C        3.26884960        1.37843950        8.46582080
C        4.04200200        9.29349880        7.47691830
C        4.89340050       10.20650800        8.37743930
C        3.99323720        0.53009815        5.73983420
C        4.86154190        1.24981950        6.62542400
C        2.28970460        2.27374010        9.34364080
C        3.07463000        3.07678690       10.19927000
C        2.18737700        4.06338320        0.39686634
C        3.13858440        4.85056280        1.29630250
C        4.02534450        2.14592700        0.42416163
C        4.81413020        3.10969310        1.26680980
C        4.00836420        3.99066600        9.27778760
C        4.89273720        4.91006370       10.24775900
C        2.25280630        2.24154390        2.15574270
C        3.19875840        3.07212720        3.11362310
C        2.28053200        4.02844260        4.00138490
C        3.09542490        4.89783630        4.89702110
C        4.02146060        2.18121900        4.04839280
C        4.83752520        3.10034560        4.80869740
C        4.00056680        3.97280880        2.19436990
C        4.94817760        4.79335020        3.09323590
C        2.14887860        2.20248630        5.73455510
C        3.10107620        3.13848600        6.63032080
C        2.21697110        3.99416510        7.58096450
C        3.08891920        4.88978070        8.44319930
C        4.00790620        2.20130790        7.51178060
C        4.88183990        3.14456130        8.44222360
C        3.95045560        4.01231480        5.74839710
C        4.98811750        4.86382070        6.63368290
C        2.18013380        5.75672340        9.32436050
C        3.11045010        6.70566790       10.20021800
C        2.15223390        7.55398190        0.43796315
C        3.08079780        8.48144420        1.28056700
C        4.00141450        5.79136380        0.42334975
C        4.92195560        6.62612810        1.32003880
C        3.95101130        7.60153610        9.29189340
C        4.85712250        8.45317560       10.21175700
C        2.18884560        5.77625760        2.19129950
C        3.11716630        6.67564770        3.11768810
C        2.15279700        7.51771290        4.02804490
C        3.12749910        8.37666010        4.89667420
C        3.96176580        5.69477220        3.96423410
C        4.91756790        6.64188610        4.80507710
C        3.94640850        7.55183980        2.19130900
C        4.94829910        8.42133150        3.09537170
C        2.17749920        5.73821020        5.79740600
C        3.19568480        6.68217000        6.65664840
C        2.14427840        7.53497670        7.55534060
C        3.10779250        8.42730080        8.46542980
C        4.02580830        5.80298550        7.51542800
C        4.91174190        6.74739510        8.44957870
C        4.05481860        7.44966690        5.76052740
C        4.92410140        8.38595060        6.62363790
C        5.80166100        9.34546700        9.32107580
C        6.59979320       10.23746000       10.26177600
C        5.80457760        0.42516728        0.42590264
C        6.66939770        1.36033770        1.32167580
C        7.51733580        9.30438530        0.41870927
C        8.38388350       10.25199600        1.27992670
C        7.56794260        0.49350816        9.34288700
C        8.40438000        1.34775860       10.17104100
C        5.81078100        9.25931300        2.22633620
C        6.67173890       10.18245600        3.08781280
C        5.69018070        0.47040516        3.98780740
C        6.64793420        1.40047640        4.86622520
C        7.44702010        9.29794300        4.00827260
C        8.41047290       10.19562600        4.86222750
C        7.56798620        0.47481859        2.19926140
C        8.47885950        1.30551400        3.08220430
C        5.74978700        9.24211990        5.76623460
C        6.64999270       10.22167500        6.55148010
C        5.69902260        0.49731637        7.50831050
C        6.56356330        1.31273820        8.42587170
C        7.46916170        9.31975820        7.53425580
C        8.42364790       10.16326100        8.42444310
C        7.47549920        0.44777840        5.74943760
C        8.35240150        1.37128390        6.66764400
C        5.76765450        2.22838600        9.32181510
C        6.62989010        3.10699630       10.18663800
C        5.77225850        3.94579270        0.40541040
C        6.70217900        4.84485480        1.31090190
C        7.51713000        2.22336960        0.50435973
C        8.46266390        3.08115860        1.33076950
C        7.46855850        3.97564300        9.31842140
C        8.40407510        4.90484880       10.29065200
C        5.78492570        2.15921770        2.15570750
C        6.68079900        3.17587310        3.09496330
C        7.50500230        2.22584720        3.94796030
C        8.47091680        3.10957900        4.78370000
C        7.51072020        3.90953660        2.16177200
C        8.42062970        4.85640160        3.10577770
C        5.77143990        2.29821000        5.74943240
C        6.65102490        3.14716020        6.66803350
C        5.81457720        4.00155040        7.49157080
C        6.64998450        4.89625180        8.40139630
C        7.49468540        2.23490900        7.55152700
C        8.34183350        3.12272080        8.44888800
C        7.63894920        3.90122410        5.81744850
C        8.42140390        4.79891680        6.65449880
C        5.73272200        5.80094190        9.32612860
C        6.66662670        6.70937160       10.25977400
C        5.83652570        7.53382300        0.44138968
C        6.68464730        8.40276640        1.35237020
C        7.52157060        5.77348240        0.50210879
C        8.42642080        6.61705180        1.37053440
C        7.57165640        7.48250470        9.35432720
C        8.36989210        8.42031430       10.17768500
C        5.73659620        5.76975820        2.20227680
C        6.70808600        6.57654220        3.14017620
C        5.75568440        7.50359150        3.91390430
C        6.57690620        8.45706890        4.94101440
C        7.55424920        5.80216440        3.95549260
C        8.38321910        6.69619180        4.86553720
C        7.57431890        7.52615270        2.24213140
C        8.45177720        8.44929450        3.10446210
C        5.75131940        5.80126210        5.80213010
C        6.73008610        6.59977550        6.71000020
C        5.72241350        7.53653760        7.54069660
C        6.70377010        8.45354080        8.40328820
C        7.51176920        5.74869640        7.55293500
C        8.45365250        6.65316780        8.47853360
C        7.53258830        7.47942220        5.81383740
C        8.40170420        8.40490050        6.65455030
N        5.63769500        3.92174260        3.88484660
