&CONTROL
calculation = 'scf'
restart_mode = 'from_scratch'
verbosity = 'high'
wf_collect = .true.
pseudo_dir='/home/arpank/pseudopotentials/'
tprnfor = .true.
/
&SYSTEM
ibrav = 0
ecutwfc = 60
tot_charge = -1
nspin = 2
tot_magnetization = 2.0
nbnd = 480
nat = 215
ntyp = 2
input_dft = 'PBE0'
exx_fraction = 0.18
ecutfock = 120
/
&ELECTRONS
conv_thr = 1D-8
diago_full_acc=.true.
mixing_beta = 0.3
/
&IONS
ion_dynamics='bfgs'
ion_positions='default'
/
K_POINTS gamma
ATOMIC_SPECIES
C  12.01099968  C_ONCV_PBE-1.0.upf
N  14.00699997  N_ONCV_PBE-1.0.upf
CELL_PARAMETERS angstrom
    10.65000000      0.00000000      0.00000000
     0.00000000     10.65000000      0.00000000
     0.00000000      0.00000000     10.65000000
ATOMIC_POSITIONS angstrom
C        9.33764890        9.26261420        9.31745810
C       10.12762600       10.20726500       10.33136400
C        9.28331540        0.49295841        0.45228358
C       10.18578000        1.29731560        1.32875050
C        0.47019391        9.26506750        0.42778158
C        1.33915960       10.17790400        1.35690580
C        0.40647575        0.40364780        9.27696180
C        1.25261540        1.32354480       10.19592200
C        9.25860490        9.26923810        2.21683430
C       10.13486900       10.29667200        3.06303660
C        9.29145230        0.37954951        3.98850190
C       10.19318100        1.40734160        4.90731420
C        0.41406626        9.27893490        4.02785980
C        1.32568440       10.21283500        4.88925890
C        0.45841478        0.45004428        2.19461460
C        1.31166300        1.23497730        3.11253550
C        9.30677470        9.28529860        5.82519480
C       10.29989900       10.18582000        6.61536640
C        9.23981530        0.43089134        7.55546340
C       10.24763400        1.29482400        8.38225380
C        0.49186068        9.28453220        7.51820110
C        1.32049560       10.12735600        8.47425570
C        0.50800358        0.40434601        5.79517000
C        1.34091370        1.31092680        6.60810130
C        9.29240470        2.20412110        9.27644910
C       10.16826800        3.13977920       10.21053300
C        9.24056620        4.01637970        0.46860614
C       10.24404700        4.94608430        1.41576150
C        0.39759734        2.25565400        0.48624723
C        1.34782700        3.15251170        1.31507370
C        0.44714782        4.01177750        9.33106990
C        1.34215940        4.89176520       10.18360000
C        9.32931410        2.23834690        2.15786810
C       10.21493800        3.09953400        3.12187440
C        9.37211280        4.04538920        4.03464590
C       10.24723200        4.81325850        4.92601040
C        0.43414188        2.24079350        3.96053850
C        1.40029110        3.09326250        4.78987610
C        0.50625738        4.05215220        2.19152900
C        1.35633400        4.95288750        3.01046040
C        9.32935840        2.18387680        5.78970940
C       10.26483500        3.12514260        6.68435800
C        9.39997870        3.96102030        7.56284840
C       10.24877300        4.93825050        8.40461280
C        0.51439664        2.29006740        7.51054650
C        1.34882820        3.12620560        8.39975540
C        0.53130194        3.96512840        5.79367070
C        1.38844600        4.92808520        6.68648180
C        9.36159770        5.74995320        9.26813540
C       10.25170000        6.61619220       10.23569200
C        9.37291740        7.54146820        0.45429602
C       10.28526800        8.45470990        1.35782530
C        0.41941896        5.85898210        0.46981885
C        1.36740220        6.70140850        1.38295000
C        0.44174998        7.52344960        9.37172130
C        1.33200370        8.35818180       10.18701900
C        9.35198470        5.73877740        2.26336030
C       10.09556000        6.58627990        3.07169470
C        9.33071840        7.58117370        4.04324120
C       10.25459600        8.41978320        4.95790330
C        0.39359531        5.70162580        3.94644110
C        1.29505890        6.65604690        4.90529230
C        0.37540610        7.53188900        2.24260830
C        1.33511200        8.45475790        3.06024030
C        9.38586750        5.80078440        5.81482010
C       10.26869400        6.64545010        6.69262350
C        9.30004090        7.49584760        7.55489550
C       10.20018700        8.43465300        8.42109280
C        0.46058245        5.78756970        7.57500160
C        1.32267310        6.69943560        8.49199990
C        0.51801970        7.51238330        5.74151670
C        1.38210550        8.44373250        6.66023280
C        2.28004600        9.27105590        9.34877900
C        3.10219360       10.18004100       10.13456500
C        2.22491940        0.44922023        0.41452574
C        3.16101680        1.31541700        1.36938390
C        3.97834130        9.30925630        0.40653926
C        4.82473760       10.14491800        1.30559160
C        3.94691040        0.44101157        9.30103640
C        4.87949840        1.30821490       10.25341000
C        2.15742860        9.43585500        2.22446590
C        3.02854830       10.22382200        3.09113830
C        2.18661800        0.42706579        4.08785330
C        3.11909600        1.27562380        4.85878660
C        3.94713670        9.35936740        4.01639570
C        4.84318630       10.20522400        4.87466030
C        3.96449390        0.47852531        2.25767580
C        4.88155790        1.37059470        3.11764500
C        2.20324450        9.29751710        5.78984230
C        3.10082540       10.22185800        6.70729480
C        2.19533640        0.36761191        7.49999280
C        3.01051810        1.29952020        8.41143500
C        3.95523880        9.32698920        7.57016880
C        4.81377450       10.20212500        8.34242970
C        3.92685550        0.47318240        5.82695220
C        4.87754460        1.35914600        6.63706090
C        2.24569960        2.23688590        9.30657400
C        3.14337520        3.11001920       10.24226000
C        2.20631310        4.06345400        0.46274979
C        3.09710430        4.85662880        1.37090980
C        4.01428460        2.20052780        0.43564971
C        4.89405490        3.17732130        1.32629380
C        3.99720510        4.01321740        9.34583990
C        4.95591040        4.84063960       10.21288400
C        2.16012080        2.16690650        2.18091830
C        3.04882610        3.01860000        3.07814600
C        2.22232590        4.01629740        3.84954530
C        3.13867020        4.84359920        4.86823870
C        4.04218670        2.17411380        3.92349360
C        4.89642340        3.08584670        4.78880660
C        3.97029150        4.01539760        2.17273330
C        4.88528840        4.80631330        3.10976190
C        2.22561220        2.26202690        5.69538840
C        3.10119830        3.10680770        6.65600460
C        2.22960420        4.02199780        7.49008820
C        3.15628350        4.85463970        8.43332450
C        3.92395400        2.29804230        7.54917890
C        4.83740230        3.05172860        8.46426230
C        3.99535240        4.05817930        5.72911450
C        4.93066730        4.81927790        6.55479570
C        2.25781550        5.78826210        9.28831490
C        3.11838920        6.61211730       10.26437700
C        2.23994260        7.55453320        0.39273205
C        3.11296380        8.40551070        1.35389100
C        3.97944820        5.75478460        0.43339463
C        4.91591510        6.68655270        1.35188350
C        3.97393360        7.49254190        9.34763170
C        4.91807590        8.43756340       10.20488000
C        2.28027880        5.78912140        2.14340700
C        3.10091470        6.65574440        3.03518550
C        2.19525270        7.50008530        4.04597690
C        3.11955850        8.39236330        4.89193630
C        3.95054600        5.73775490        3.96385730
C        4.89397140        6.66526830        4.83118530
C        4.00179520        7.59078410        2.25370830
C        4.91344380        8.44047000        3.08664720
C        2.17723800        5.78188420        5.75860780
C        3.13315390        6.57603460        6.67289380
C        2.29477760        7.48292370        7.51650490
C        3.16154500        8.38373150        8.39646290
C        4.05800150        5.73530270        7.51209410
C        4.88768930        6.68428780        8.53954480
C        4.01833780        7.51370560        5.76513470
C        4.87936190        8.50581780        6.63974400
C        5.77778200        9.36626810        9.34476350
C        6.65745980       10.28093100       10.25759300
C        5.73447210        0.39219953        0.49930505
C        6.67764390        1.33809680        1.37303960
C        7.51516310        9.34605150        0.36968616
C        8.41498160       10.22005900        1.32301880
C        7.58785550        0.46854035        9.36449120
C        8.43360780        1.37977750       10.21530700
C        5.68461760        9.33051120        2.14461220
C        6.62859740       10.24746500        3.15784740
C        5.76045450        0.43219354        4.04904890
C        6.62422060        1.41203990        4.95301940
C        7.52622860        9.33602910        3.97063330
C        8.44462140       10.22610900        4.90962850
C        7.49788080        0.49127352        2.23587970
C        8.37421780        1.36502000        3.02786060
C        5.78469460        9.33907150        5.76831090
C        6.66371560       10.20672000        6.66183520
C        5.77909330        0.50083627        7.56441010
C        6.66502800        1.37195630        8.44090070
C        7.52635460        9.29837360        7.56324570
C        8.40650740       10.18098300        8.44458920
C        7.53561800        0.43074837        5.84260600
C        8.41989460        1.32666210        6.63788430
C        5.68493990        2.22805210        9.31162890
C        6.62322330        3.12879810       10.20097700
C        5.78587800        3.94262630        0.39994361
C        6.66963970        4.94099050        1.40077050
C        7.52789760        2.23285830        0.45879697
C        8.38522380        3.13400740        1.22856680
C        7.49194980        3.99613190        9.28470850
C        8.44945160        4.94575400       10.19993900
C        5.79723820        2.20598540        2.18083630
C        6.59383500        3.08547120        3.13754810
C        7.53305130        2.25641600        4.02513350
C        8.38200480        3.08575630        4.85045770
C        7.50025740        3.99733920        2.24345460
C        8.44203530        4.91978590        3.19610780
C        5.75923560        2.35889820        5.81735030
C        6.65027550        3.18870600        6.62235000
C        5.79454370        3.96157380        7.50635080
C        6.67830870        4.83825630        8.33371990
C        7.52147940        2.23428190        7.50343520
C        8.38936750        3.09816920        8.40535840
C        7.68079620        3.93016700        5.79914350
C        8.51467080        4.86435810        6.67861860
C        5.78879210        5.72498640        9.32946920
C        6.65686970        6.66061640       10.20644000
C        5.74535360        7.53139660        0.42151917
C        6.59397920        8.42073790        1.28008390
C        7.59365680        5.76625080        0.43246324
C        8.43291020        6.58045170        1.33634570
C        7.58236970        7.53413950        9.30728650
C        8.42862420        8.40737410       10.23578800
C        5.83021670        5.74435360        2.26006270
C        6.67840060        6.69689660        3.13291480
C        5.74397100        7.56633130        3.99134760
C        6.56232200        8.44790500        4.85516240
C        7.58074290        5.82400150        4.01318730
C        8.39757020        6.60131540        4.90716080
C        7.46443820        7.55809180        2.23865710
C        8.41316740        8.42099340        3.12249920
C        5.73705840        5.88370920        5.80685510
C        6.64814930        6.62590290        6.69509030
C        5.75711500        7.57621370        7.55018910
C        6.71175990        8.36050850        8.43569380
C        7.51183880        5.76993440        7.55366050
C        8.53056510        6.66202940        8.40794760
C        7.52615480        7.51823570        5.75689790
C        8.41633720        8.36272360        6.65337710
N        5.70590650        3.94536050        3.94772020
