&CONTROL
calculation = 'scf'
restart_mode = 'from_scratch'
verbosity = 'high'
wf_collect = .true.
pseudo_dir='/home/arpank/pseudopotentials/'
tprnfor = .true.
/
&SYSTEM
ibrav = 0
ecutwfc = 60
tot_charge = -1
nspin = 2
tot_magnetization = 2.0
nbnd = 480
nat = 215
ntyp = 2
input_dft = 'PBE0'
exx_fraction = 0.18
ecutfock = 120
/
&ELECTRONS
conv_thr = 1D-8
diago_full_acc=.true.
mixing_beta = 0.3
/
&IONS
ion_dynamics='bfgs'
ion_positions='default'
/
K_POINTS gamma
ATOMIC_SPECIES
C  12.01099968  C_ONCV_PBE-1.0.upf
N  14.00699997  N_ONCV_PBE-1.0.upf
CELL_PARAMETERS angstrom
    10.65000000      0.00000000      0.00000000
     0.00000000     10.65000000      0.00000000
     0.00000000      0.00000000     10.65000000
ATOMIC_POSITIONS angstrom
C        9.33753680        9.39085080        9.39590550
C       10.16224000       10.22937400       10.26742900
C        9.34291160        0.50674160        0.46018711
C       10.13387900        1.38338870        1.30364270
C        0.41317279        9.26321370        0.40575014
C        1.30975750       10.20861900        1.34104310
C        0.42594794        0.43830374        9.34035250
C        1.28594660        1.31496310       10.27203900
C        9.29119450        9.32164410        2.12600970
C       10.13437800       10.14372700        3.10217360
C        9.31648200        0.42452865        3.97909020
C       10.20341000        1.33826520        4.88102310
C        0.46388443        9.24752960        3.98308890
C        1.36719500       10.16100900        4.85362480
C        0.41416696        0.42277719        2.18914820
C        1.31863710        1.31031330        3.07674690
C        9.34403830        9.32569590        5.69160610
C       10.22339700       10.24634500        6.61229790
C        9.32102660        0.39058259        7.51520700
C       10.19046000        1.31219300        8.46113030
C        0.41343726        9.27461870        7.57728580
C        1.30950170       10.14552000        8.39763600
C        0.50591522        0.42938322        5.71993340
C        1.34177900        1.35949490        6.69258420
C        9.24520720        2.28466970        9.32487630
C       10.24024300        3.07632520       10.23322300
C        9.33096640        4.05819980        0.42146962
C       10.22213600        4.86723410        1.32886560
C        0.40531131        2.23551120        0.48390624
C        1.36877380        3.08914850        1.39310990
C        0.48264270        3.93036560        9.32884960
C        1.32365500        4.87563950       10.12393600
C        9.25555790        2.22744090        2.26388710
C       10.19459500        3.11517820        3.05399530
C        9.32680380        4.03183570        3.97310750
C       10.23560300        4.90403880        4.93694650
C        0.42208943        2.24337220        4.00495630
C        1.30531700        3.12451320        4.85637350
C        0.54466871        3.90534290        2.24174770
C        1.40186440        4.89269020        3.10890070
C        9.34575870        2.18542140        5.77408170
C       10.18913100        3.07666520        6.66604270
C        9.31438980        3.98532110        7.51628500
C       10.20694400        4.86610910        8.49975270
C        0.43080083        2.19304100        7.52177570
C        1.30782680        3.14754790        8.49544720
C        0.50132689        3.98458270        5.77742690
C        1.31503560        4.87102880        6.68271280
C        9.33515260        5.70738140        9.33093320
C       10.25652700        6.67666190       10.14691600
C        9.26726550        7.46208790        0.40288064
C       10.21513400        8.42926740        1.28854530
C        0.43277633        5.83324190        0.40179391
C        1.36265640        6.65476820        1.28884000
C        0.50337012        7.54131470        9.30669900
C        1.36686290        8.43106900       10.24133600
C        9.32989040        5.77782310        2.22944680
C       10.21937500        6.60252740        3.09756160
C        9.29341220        7.53520990        3.98393920
C       10.27683800        8.38081710        4.89398050
C        0.48157257        5.76040720        3.98985360
C        1.35154250        6.68006400        5.00828270
C        0.50519434        7.58126150        2.22927050
C        1.31061260        8.41331650        3.07447850
C        9.37355680        5.81576880        5.70169130
C       10.16756900        6.62404640        6.65761210
C        9.40017070        7.56050790        7.59381050
C       10.23010300        8.43776740        8.40318350
C        0.46634840        5.72194890        7.57108640
C        1.33222020        6.58263140        8.42510090
C        0.46187115        7.56002830        5.77615880
C        1.32000610        8.40352910        6.71709850
C        2.21637830        9.28828370        9.37512710
C        3.09424810       10.13611600       10.20794100
C        2.21602220        0.42319398        0.43477806
C        3.13591080        1.20247440        1.36571020
C        3.91525870        9.24478710        0.46708104
C        4.88805780       10.12668200        1.38176260
C        3.97793220        0.51632726        9.31975410
C        4.87649430        1.41076630       10.14184400
C        2.13998220        9.30912670        2.19609410
C        3.09045580       10.19203200        3.08967750
C        2.31507130        0.40408939        4.01895690
C        3.15420530        1.30131040        4.92195620
C        3.96377020        9.34105430        4.03022310
C        4.94026370       10.16530800        4.84248720
C        3.90382680        0.34457998        2.24937730
C        4.81672570        1.27346340        3.21047600
C        2.24172010        9.29111810        5.74824150
C        3.07191770       10.21382900        6.64265470
C        2.24346890        0.42590844        7.51567330
C        3.08090250        1.33452140        8.40364490
C        3.98021650        9.34896220        7.58495340
C        4.80104790       10.25285600        8.43494690
C        3.95365470        0.38394364        5.76369660
C        4.91058030        1.36190490        6.64400930
C        2.19700310        2.16894900        9.32549470
C        3.09766800        3.08932660       10.20947800
C        2.22506910        3.95125330        0.44133799
C        3.12115630        4.91625460        1.29587350
C        4.00191910        2.20906130        0.50781098
C        4.88494110        3.11370860        1.30936910
C        4.01771210        4.00707840        9.27773520
C        4.86217630        4.90785600       10.13273900
C        2.18888460        2.14770450        2.25176470
C        3.14318080        3.07948400        3.06114350
C        2.21329930        3.96580500        3.97338880
C        3.12831550        4.90811850        4.90866520
C        3.86485920        2.27645570        4.07069970
C        4.85682070        3.10264210        4.82736790
C        3.95054920        3.98068300        2.13941850
C        4.86794860        4.89125780        3.01098380
C        2.20298900        2.23295920        5.83689030
C        3.07610840        3.14695360        6.71011510
C        2.16701460        3.99503970        7.51519930
C        3.05393980        4.81697540        8.45900490
C        3.90669100        2.27202060        7.55436280
C        4.81751520        3.16650190        8.38847440
C        4.05138070        3.95881170        5.80427780
C        4.88927500        4.82651080        6.64333240
C        2.23223510        5.81617690        9.31079240
C        3.14385370        6.68362510       10.20413200
C        2.28627230        7.49470790        0.35174705
C        3.05834550        8.37355460        1.29289690
C        3.99950950        5.80681040        0.40615046
C        4.91054350        6.59058560        1.31897480
C        4.01860580        7.58603950        9.31281840
C        4.90818280        8.44340200       10.22913000
C        2.22815780        5.71902790        2.21147300
C        3.11783370        6.69302350        3.11938820
C        2.22705020        7.49079620        4.05642140
C        3.11431770        8.37215490        4.79936020
C        4.03723730        5.74134790        3.98910100
C        4.93955970        6.61813000        4.92629120
C        4.03056770        7.56693780        2.20773810
C        4.82387610        8.42055600        3.08472090
C        2.16293720        5.86279430        5.83114210
C        3.08982310        6.66666090        6.72499140
C        2.29459600        7.59199580        7.58433250
C        3.06501170        8.47305080        8.44783010
C        4.04866270        5.72984410        7.52275100
C        4.95088590        6.65507520        8.39035960
C        3.97141320        7.57086310        5.75025440
C        4.87062920        8.40589590        6.66943320
C        5.68525700        9.31277770        9.31514370
C        6.63569230       10.20943800       10.17459900
C        5.77318700        0.38771150        0.35563598
C        6.59845020        1.31580060        1.37320350
C        7.54108770        9.31425400        0.39645229
C        8.45944170       10.17401200        1.30673700
C        7.51013030        0.53633683        9.30776870
C        8.36681560        1.38926310       10.22001000
C        5.70130380        9.37758520        2.18760290
C        6.62651260       10.22102500        3.09299670
C        5.81291650        0.40470020        4.05450900
C        6.66541830        1.37671630        4.88425530
C        7.50571260        9.33554680        3.99545620
C        8.41914160       10.14821300        4.92757720
C        7.54269420        0.48953747        2.23393000
C        8.43878240        1.32785740        3.13569000
C        5.76701820        9.33650240        5.79110910
C        6.72966020       10.16078600        6.64395020
C        5.70128030        0.46604260        7.58923630
C        6.62920390        1.41184600        8.40397340
C        7.60669890        9.31017510        7.56668790
C        8.46042590       10.28861000        8.41448820
C        7.56305180        0.44342186        5.72517340
C        8.49681410        1.32891870        6.70592890
C        5.77636760        2.31304750        9.26377700
C        6.65826190        3.16503060       10.25768700
C        5.76548150        4.00925910        0.45481855
C        6.67794440        4.93924080        1.29754870
C        7.56865910        2.22964790        0.47238775
C        8.46102380        3.10863770        1.37275290
C        7.56042530        3.97206350        9.34634240
C        8.38194920        4.96403900       10.22259200
C        5.72368430        2.17582020        2.24082930
C        6.57613150        3.11666690        3.13199150
C        7.48634080        2.23079210        3.93740540
C        8.41588340        3.11359820        4.87443200
C        7.53028170        4.04182240        2.24531730
C        8.38914200        4.88222920        3.18569430
C        5.77395270        2.28646150        5.76519510
C        6.64875510        3.13562860        6.66233160
C        5.74664680        3.95111740        7.58462460
C        6.66321460        4.88024370        8.38308320
C        7.55251700        2.24631090        7.53329760
C        8.41172150        3.16821990        8.39223630
C        7.61602800        3.98451700        5.82100650
C        8.53653120        4.81994460        6.63653030
C        5.70621450        5.80368400        9.31543680
C        6.66119030        6.67784820       10.23533500
C        5.78801890        7.52253190        0.41903438
C        6.64074460        8.41864550        1.27123100
C        7.62439180        5.78661570        0.42296023
C        8.51820750        6.70268200        1.35887920
C        7.55027990        7.48280720        9.38083990
C        8.40076110        8.40925280       10.14336900
C        5.76276880        5.74352970        2.22869320
C        6.63384390        6.65458510        3.08381070
C        5.73804840        7.58075830        4.02131190
C        6.64209270        8.40247630        4.84771820
C        7.60397260        5.87684480        3.99496590
C        8.44592810        6.74838030        4.78538530
C        7.55199260        7.60341730        2.19431280
C        8.50711070        8.42375730        3.13291280
C        5.77814720        5.83977510        5.79914800
C        6.75565650        6.72619650        6.63593420
C        5.76745100        7.55585900        7.50549300
C        6.60917130        8.42414450        8.44081450
C        7.52952540        5.70800740        7.50479190
C        8.39917650        6.64137890        8.45674560
C        7.60674670        7.61837190        5.83611260
C        8.53219710        8.49082140        6.71259130
N        5.64590440        3.93802570        3.90156820
