&CONTROL
calculation = 'scf'
restart_mode = 'from_scratch'
verbosity = 'high'
wf_collect = .true.
pseudo_dir='/home/arpank/pseudopotentials/'
tprnfor = .true.
/
&SYSTEM
ibrav = 0
ecutwfc = 60
tot_charge = -1
nspin = 2
tot_magnetization = 2.0
nbnd = 480
nat = 215
ntyp = 2
input_dft = 'PBE0'
exx_fraction = 0.18
ecutfock = 120
/
&ELECTRONS
conv_thr = 1D-8
diago_full_acc=.true.
mixing_beta = 0.3
/
&IONS
ion_dynamics='bfgs'
ion_positions='default'
/
K_POINTS gamma
ATOMIC_SPECIES
C  12.01099968  C_ONCV_PBE-1.0.upf
N  14.00699997  N_ONCV_PBE-1.0.upf
CELL_PARAMETERS angstrom
    10.65000000      0.00000000      0.00000000
     0.00000000     10.65000000      0.00000000
     0.00000000      0.00000000     10.65000000
ATOMIC_POSITIONS angstrom
C        9.37094140        9.32671620        9.34777850
C       10.24969500       10.24034100       10.18252300
C        9.30646350        0.41545183        0.44778161
C       10.23096500        1.34375450        1.26232860
C        0.51446368        9.23397460        0.44304610
C        1.40511190       10.23425700        1.33225490
C        0.40154864        0.40851483        9.30245340
C        1.28289940        1.28383640       10.20400400
C        9.38254230        9.28293930        2.27455520
C       10.21390600       10.27082900        3.16780220
C        9.33470490        0.45533136        3.94464700
C       10.15464600        1.33151170        4.82632380
C        0.41136662        9.33340530        4.00012190
C        1.36228140       10.23541500        4.85889910
C        0.50630943        0.44681149        2.23166120
C        1.36347360        1.35071780        3.05240350
C        9.33841280        9.35899550        5.78307410
C       10.23925400       10.25028700        6.62877690
C        9.26624920        0.47536320        7.53005940
C       10.18040700        1.32767560        8.40287880
C        0.46519739        9.34102340        7.47149650
C        1.33570320       10.26838300        8.40003810
C        0.39925326        0.50442538        5.73405720
C        1.34991450        1.32073510        6.58514830
C        9.35615980        2.18134100        9.29485370
C       10.19504500        3.12093130       10.22082300
C        9.31151710        3.96908880        0.44237352
C       10.23487700        4.88002300        1.30692910
C        0.45178759        2.23346690        0.38649527
C        1.25634230        3.11674520        1.25514490
C        0.40010581        4.00994030        9.31476740
C        1.28257620        4.85228050       10.12358600
C        9.32327300        2.27363750        2.22449310
C       10.19102600        3.07493450        3.19255580
C        9.38664660        3.99285550        4.06715110
C       10.23309700        4.85884770        4.90434500
C        0.36862362        2.26819600        3.98400540
C        1.34042030        3.03383460        4.88922130
C        0.43353440        3.89831120        2.20621770
C        1.31888850        4.81626610        3.08525290
C        9.24001990        2.19736510        5.74246830
C       10.19157400        3.04228840        6.73063590
C        9.30863440        3.98808160        7.58138140
C       10.21346000        4.84885670        8.42513620
C        0.41405329        2.23839110        7.51487250
C        1.30097000        3.05021120        8.47922370
C        0.44372831        3.92166920        5.84593350
C        1.31380970        4.89132160        6.70594840
C        9.32790330        5.74195380        9.37976220
C       10.21270200        6.68348920       10.31809400
C        9.32711170        7.60603960        0.51000900
C       10.27539000        8.44713420        1.42103280
C        0.46190941        5.78579500        0.45571269
C        1.35460380        6.67485210        1.31828270
C        0.48165065        7.57408260        9.33174870
C        1.39401380        8.40609960       10.26177900
C        9.32281140        5.71299560        2.21350500
C       10.20774100        6.67627050        3.14568530
C        9.40644350        7.60725230        3.95066270
C       10.21508900        8.40565850        4.89956440
C        0.40980952        5.78807580        4.03950280
C        1.37976610        6.65199250        4.95061130
C        0.42790739        7.45204390        2.17183720
C        1.34821940        8.38892390        3.18924400
C        9.25843770        5.72070060        5.82254250
C       10.09356000        6.66506730        6.61649600
C        9.41913350        7.55092400        7.63681200
C       10.24230900        8.44305300        8.45990020
C        0.40850833        5.79538390        7.63194030
C        1.35713940        6.69284550        8.43466740
C        0.42833234        7.54330410        5.75212090
C        1.27160720        8.42098060        6.63905660
C        2.18061080        9.31846790        9.33399760
C        3.10064010       10.20094200       10.18003700
C        2.23768020        0.35786743        0.47369671
C        3.07752170        1.33015280        1.29360320
C        3.96081520        9.25977340        0.43179168
C        4.89097270       10.13290800        1.28965480
C        3.96335160        0.38780685        9.31166740
C        4.83919380        1.32635610       10.19179800
C        2.24430890        9.30025880        2.24955480
C        3.15581390       10.11540900        3.07447570
C        2.22542250        0.43161302        3.94519710
C        3.12919240        1.34005800        4.84370780
C        4.02759070        9.31561240        3.99645510
C        4.96020810       10.23075700        4.89732310
C        4.03617290        0.42925799        2.18781100
C        4.91104970        1.31131630        3.08160270
C        2.20486480        9.36005640        5.81326950
C        3.12303890       10.22031000        6.65085460
C        2.19296790        0.43414030        7.48508720
C        3.09669430        1.34968190        8.40363620
C        3.96649410        9.35866400        7.54490970
C        4.83045030       10.17543200        8.42953310
C        3.98622310        0.40298582        5.80371320
C        4.87788210        1.43578440        6.67892540
C        2.22975010        2.17876530        9.26225910
C        3.15939970        3.09689380       10.26680100
C        2.24219800        3.99477700        0.42889911
C        3.06166550        4.88861570        1.33893730
C        4.04528540        2.15030140        0.43744374
C        4.92131200        3.08604710        1.35859850
C        3.89815330        4.01256440        9.36792560
C        4.88431650        4.88545990       10.19931500
C        2.17364710        2.15512020        2.13507380
C        3.17594370        3.09319730        3.04531600
C        2.23498180        3.99522400        3.90961740
C        3.14646140        4.87561910        4.89293820
C        4.04045960        2.19162360        3.98819300
C        4.87775000        3.12307260        4.84745970
C        3.99059910        4.02759690        2.21931980
C        4.82048900        4.83498290        3.16160400
C        2.26136200        2.23805340        5.78202020
C        3.06015660        3.12992640        6.67369410
C        2.22457210        3.95711100        7.54209800
C        3.09806190        4.86729690        8.39118630
C        3.97034050        2.24403330        7.53488360
C        4.81735470        3.13990590        8.41608690
C        4.06066330        4.02184020        5.86873980
C        4.94404780        4.89442280        6.63344230
C        2.18062190        5.77295980        9.29857260
C        3.06004330        6.67594590       10.18848500
C        2.23994700        7.55794140        0.54748281
C        3.09659010        8.46896780        1.32865850
C        4.07231970        5.75273440        0.42281900
C        4.87523920        6.61011040        1.38336020
C        3.97178630        7.48875430        9.30766590
C        4.83426210        8.32332020       10.21763100
C        2.16661940        5.78845770        2.25174910
C        3.15560770        6.70818900        3.14349310
C        2.25343270        7.60504300        4.05612190
C        3.09399170        8.44745610        4.89147260
C        4.01116090        5.78769190        4.00126060
C        4.94486770        6.60985340        4.86511190
C        4.01121770        7.57273070        2.26658030
C        4.93270060        8.38965160        3.06544870
C        2.20048340        5.70521800        5.74845890
C        3.12588150        6.65095610        6.67796730
C        2.28762520        7.56882270        7.52534910
C        3.14924150        8.40850090        8.39077650
C        3.93278570        5.70059960        7.55830430
C        4.89313550        6.60151470        8.41671770
C        4.01747570        7.58884230        5.69909210
C        4.90199090        8.55142560        6.66554640
C        5.71818970        9.34177980        9.28678040
C        6.65740770       10.19436000       10.14106000
C        5.76162210        0.40972005        0.46746247
C        6.69717630        1.41403350        1.34590490
C        7.49910110        9.35651630        0.43642592
C        8.42206690       10.17440100        1.32401550
C        7.56884450        0.46986183        9.27346130
C        8.39749340        1.30091550       10.25547100
C        5.79226140        9.30957290        2.27375170
C        6.67709130       10.24560400        3.02903960
C        5.75630410        0.46559286        3.95913170
C        6.74051510        1.33295700        4.90067790
C        7.56949840        9.28731250        4.02303040
C        8.40443140       10.21664800        4.89953290
C        7.56028270        0.38975340        2.16814380
C        8.41411020        1.38346670        3.09319150
C        5.73984760        9.38786430        5.78175530
C        6.63645620       10.30729000        6.72401470
C        5.74188190        0.49460074        7.48742360
C        6.60706630        1.29127180        8.42340320
C        7.53034630        9.36672180        7.50261320
C        8.47598810       10.20310300        8.39508330
C        7.52302130        0.46946801        5.77031930
C        8.34844830        1.30188860        6.63817150
C        5.75343330        2.22748000        9.27625470
C        6.66137010        3.12679180       10.17314000
C        5.80889920        3.95341670        0.43528287
C        6.59335310        4.88622510        1.34292070
C        7.53040070        2.21825460        0.39882517
C        8.45301250        3.11464780        1.32091620
C        7.58722970        3.94132670        9.30514460
C        8.36219090        4.88575470       10.16954500
C        5.82515710        2.20372150        2.17518420
C        6.54581170        3.08151450        3.11955550
C        7.53277480        2.38255570        3.97202280
C        8.36131880        3.21704200        4.90107760
C        7.53046340        3.95866810        2.22722410
C        8.43333630        4.87857940        3.13047360
C        5.81546150        2.26024370        5.70572100
C        6.63210990        3.08227830        6.78889810
C        5.79142820        4.05989460        7.56342090
C        6.64154990        4.87363080        8.37406780
C        7.44805990        2.18862030        7.53385980
C        8.39216250        3.08080850        8.45048400
C        7.49778850        3.95429860        5.81523670
C        8.41496050        4.89072540        6.65970020
C        5.73800780        5.70852590        9.32891270
C        6.63789900        6.69293120       10.20423800
C        5.68288670        7.57666880        0.46081768
C        6.61713540        8.48315590        1.35840950
C        7.55964410        5.74734710        0.38449527
C        8.41912820        6.63249400        1.40808480
C        7.52287560        7.50812140        9.33850210
C        8.44178740        8.52112020       10.15166800
C        5.73026050        5.72970700        2.30452480
C        6.67341470        6.64400920        3.10010770
C        5.76484960        7.47267120        3.98364410
C        6.67096550        8.43015810        4.84027620
C        7.62025950        5.86105520        3.95883310
C        8.41804680        6.66757240        4.92434720
C        7.52917240        7.57910740        2.23958470
C        8.47960370        8.40128930        3.10089290
C        5.79470190        5.82658280        5.79924590
C        6.67463250        6.68529730        6.61842050
C        5.71664860        7.58969940        7.47439730
C        6.74371570        8.37618280        8.41158630
C        7.56082500        5.80893830        7.47420180
C        8.39524300        6.62759500        8.47099580
C        7.54868130        7.61081580        5.77245270
C        8.44867920        8.41266990        6.71761580
N        5.72047270        3.95645980        3.94556320
