&CONTROL
calculation = 'scf'
restart_mode = 'from_scratch'
verbosity = 'high'
wf_collect = .true.
pseudo_dir='/home/arpank/pseudopotentials/'
tprnfor = .true.
/
&SYSTEM
ibrav = 0
ecutwfc = 60
tot_charge = -1
nspin = 2
tot_magnetization = 2.0
nbnd = 480
nat = 215
ntyp = 2
input_dft = 'PBE0'
exx_fraction = 0.18
ecutfock = 120
/
&ELECTRONS
conv_thr = 1D-8
diago_full_acc=.true.
mixing_beta = 0.3
/
&IONS
ion_dynamics='bfgs'
ion_positions='default'
/
K_POINTS gamma
ATOMIC_SPECIES
C  12.01099968  C_ONCV_PBE-1.0.upf
N  14.00699997  N_ONCV_PBE-1.0.upf
CELL_PARAMETERS angstrom
    10.65000000      0.00000000      0.00000000
     0.00000000     10.65000000      0.00000000
     0.00000000      0.00000000     10.65000000
ATOMIC_POSITIONS angstrom
C        9.38977300        9.29917160        9.36832010
C       10.19190100       10.16834000       10.14689800
C        9.30427770        0.43906364        0.51318708
C       10.16978800        1.39530680        1.33427670
C        0.49026970        9.27623580        0.43784326
C        1.40889600       10.26147900        1.34319420
C        0.40562915        0.47005496        9.30098650
C        1.30903270        1.40497840       10.14499800
C        9.37926640        9.30272610        2.21911370
C       10.22631400       10.20005400        3.18528600
C        9.30599880        0.44278939        4.00305820
C       10.19570200        1.33146820        4.90611330
C        0.52319793        9.28966710        4.00812230
C        1.35081340       10.20211100        4.80016760
C        0.44033071        0.45941569        2.14076170
C        1.32136460        1.28397380        3.14475690
C        9.29265120        9.32382930        5.74344910
C       10.21000400       10.20423900        6.69088210
C        9.27691440        0.47182247        7.50922010
C       10.14522100        1.29336420        8.42790240
C        0.50558961        9.32766540        7.62772200
C        1.31967490       10.19230700        8.40534420
C        0.45345646        0.40349645        5.72012550
C        1.32261250        1.30229240        6.66379590
C        9.30526940        2.19168850        9.27598520
C       10.17526000        3.08625720       10.24477600
C        9.29233250        3.99093890        0.45698004
C       10.18286800        4.91545420        1.28432730
C        0.47349962        2.28018270        0.44745507
C        1.22876160        3.13114230        1.31315860
C        0.53247591        4.03868160        9.37811530
C        1.27689090        4.92142460       10.26274100
C        9.28945020        2.27686160        2.27299620
C       10.23100800        3.06924090        3.15930610
C        9.30817450        4.00204710        4.05335110
C       10.22510700        4.92853510        4.86318350
C        0.49323842        2.20107980        4.01960460
C        1.36481130        3.01915850        4.91828900
C        0.45297724        3.98771640        2.27193740
C        1.36528890        4.94997250        3.11912900
C        9.33641430        2.23071150        5.76299920
C       10.21155600        3.09643310        6.71727420
C        9.35865470        4.00613250        7.60067440
C       10.26380900        4.89778020        8.44260020
C        0.43816152        2.25176170        7.59414700
C        1.31352200        3.12852180        8.47042650
C        0.44395502        4.00482180        5.74066640
C        1.40036710        4.81181140        6.65942100
C        9.28598000        5.83945830        9.35841730
C       10.19212000        6.71857870       10.22363100
C        9.30152330        7.56740730        0.44172655
C       10.22595600        8.46507640        1.28449480
C        0.42114485        5.82805460        0.40691634
C        1.37539170        6.70639200        1.31632750
C        0.42411426        7.55470810        9.30232480
C        1.32649860        8.42591360       10.24314600
C        9.28491890        5.79716310        2.19427790
C       10.20447600        6.68836460        3.10795930
C        9.32353860        7.57093840        4.03625530
C       10.24810000        8.45882710        4.86253690
C        0.50696284        5.70861600        3.97106230
C        1.40751470        6.66882140        4.98910390
C        0.55209450        7.50937100        2.18441670
C        1.40222460        8.40738540        3.05030780
C        9.35139480        5.73230600        5.80646080
C       10.22065700        6.61704830        6.69472610
C        9.26626120        7.55140860        7.47325490
C       10.20744500        8.52312950        8.31915500
C        0.51695934        5.78323650        7.56080150
C        1.28083860        6.60577780        8.32231390
C        0.48778614        7.57669140        5.75588660
C        1.35713500        8.46888690        6.64324670
C        2.20076990        9.37760880        9.34638480
C        3.11153160       10.17627200       10.23307800
C        2.23486100        0.53961727        0.44200529
C        3.05910780        1.37180580        1.29023450
C        3.96724820        9.27534530        0.48696495
C        4.89931310       10.18530300        1.30969860
C        3.98972700        0.43536056        9.32721690
C        4.84773650        1.33466570       10.27724900
C        2.30956380        9.23778320        2.24481480
C        3.06054540       10.23293300        3.08152700
C        2.28956130        0.39135435        3.95658550
C        3.09054740        1.33576930        4.90362820
C        4.11098210        9.32284210        3.96073250
C        4.94114170       10.32261200        4.90500280
C        3.93618880        0.44075408        2.19346650
C        4.85851090        1.33964960        3.05497160
C        2.23883350        9.29105850        5.73883190
C        3.09313970       10.19679900        6.60746000
C        2.20968980        0.48228798        7.55627800
C        3.15913760        1.31782750        8.43729100
C        4.03581270        9.29424990        7.47808490
C        4.82528120       10.21514600        8.43183700
C        4.01395690        0.50420757        5.77077030
C        4.87753110        1.38408660        6.61267440
C        2.24577260        2.24529800        9.30494370
C        3.03153200        3.05956990       10.21353500
C        2.20065800        3.98300110        0.50222064
C        3.08426350        4.84286430        1.34321690
C        3.86724750        2.17487530        0.41761978
C        4.84690680        3.09180100        1.27418170
C        3.96063580        3.92149550        9.36955510
C        4.87828550        4.83904610       10.17422500
C        2.13961020        2.22315340        2.19073640
C        3.05149100        3.10608730        3.13178920
C        2.24787090        3.89967570        3.99554940
C        3.13476180        4.86276770        4.85029570
C        3.98883850        2.21274640        4.06969440
C        4.78857340        3.06431950        4.77146830
C        3.96371040        3.99287090        2.18764140
C        4.85794400        4.80820580        3.12167670
C        2.20678610        2.25715180        5.74778680
C        3.08428930        3.17066600        6.65702750
C        2.19856800        3.96151410        7.53927920
C        3.01700750        4.85189510        8.40603320
C        3.96023050        2.19062640        7.54450910
C        4.83354570        3.10127470        8.43009200
C        3.98028710        3.94399020        5.72756130
C        4.87347320        4.89206880        6.74003920
C        2.25771380        5.80477280        9.30243580
C        3.20880600        6.65189870       10.17235100
C        2.24995640        7.57713770        0.42271689
C        3.09302470        8.43048060        1.35580340
C        4.01423560        5.76874500        0.47120095
C        4.86260840        6.67420000        1.26342530
C        3.95683530        7.51068220        9.34690100
C        4.85603080        8.41839020       10.14764500
C        2.22814390        5.76636820        2.26152810
C        3.15595700        6.67527820        3.07066770
C        2.24555640        7.56001330        3.97013330
C        3.15489680        8.45449040        4.84256620
C        4.04413720        5.74442550        4.01271630
C        4.94325200        6.56072120        4.89236560
C        4.01319910        7.55166550        2.22755970
C        4.89339050        8.44723770        3.13181800
C        2.34084170        5.72433410        5.76325090
C        3.14456780        6.66503900        6.64911670
C        2.14661670        7.62407230        7.49181240
C        3.03032470        8.42038140        8.43574660
C        4.02922430        5.75536010        7.57363610
C        4.85336000        6.58111260        8.44744730
C        4.04983220        7.53530710        5.79276660
C        4.89224390        8.43073490        6.68021830
C        5.73960170        9.31054510        9.28990940
C        6.59324520       10.18421800       10.20104000
C        5.80937220        0.43360182        0.45125585
C        6.61077770        1.31426510        1.31247550
C        7.51379210        9.31153300        0.42256655
C        8.40677690       10.15976200        1.34588010
C        7.48899750        0.33841632        9.24608450
C        8.37143260        1.24694560       10.20689700
C        5.73875200        9.30177600        2.26725570
C        6.62350060       10.18450500        3.02844900
C        5.82542210        0.45549948        3.96528170
C        6.68572230        1.28217890        4.84297920
C        7.50305650        9.28724540        3.98224120
C        8.43188670       10.25323300        4.92955150
C        7.55219310        0.36632260        2.23540280
C        8.43120140        1.37259450        3.14686810
C        5.78240130        9.33575130        5.73632880
C        6.58057420       10.25550900        6.69276350
C        5.77634560        0.48144558        7.55304700
C        6.63400100        1.31775340        8.41595940
C        7.51943410        9.36135140        7.48140070
C        8.43419020       10.21737700        8.36377090
C        7.48349320        0.47801851        5.78861640
C        8.43267890        1.35543110        6.57804450
C        5.72565570        2.16783710        9.28971850
C        6.72144130        3.04760660       10.16784400
C        5.82686180        4.05729400        0.46637402
C        6.68733300        4.92635740        1.30105060
C        7.53631480        2.17095140        0.42757626
C        8.36436530        3.15132380        1.32177010
C        7.50166250        4.02157490        9.27560960
C        8.40315010        4.85753230       10.25144700
C        5.67740850        2.18213020        2.15953130
C        6.62478330        3.14165440        3.16829230
C        7.52194760        2.18809040        4.01313500
C        8.45348380        3.13718770        4.87495970
C        7.46653770        3.99337390        2.22945950
C        8.41415750        4.92330540        3.10299520
C        5.74394220        2.29000620        5.72690360
C        6.67259430        3.16462480        6.57011270
C        5.73034950        3.99728050        7.54408690
C        6.56069190        4.88163480        8.44327690
C        7.51802120        2.23764880        7.54211260
C        8.47457420        3.15426670        8.46660440
C        7.70580190        3.94848420        5.86657040
C        8.47221740        4.85279580        6.70605270
C        5.74995540        5.80850640        9.35013260
C        6.65977100        6.66906900       10.27744600
C        5.72292100        7.58383520        0.41651395
C        6.67163280        8.44372440        1.39818260
C        7.58578060        5.75178330        0.46252833
C        8.46180620        6.64525960        1.37165140
C        7.49873690        7.53894310        9.25742260
C        8.44070370        8.39163060       10.16887200
C        5.75358810        5.84218470        2.24492360
C        6.60789750        6.67325750        3.17665760
C        5.75764960        7.59126400        4.04440570
C        6.66036850        8.39385310        4.93384810
C        7.64593710        5.79486570        3.97653390
C        8.47953920        6.67670470        4.90826670
C        7.52290540        7.57601850        2.25547120
C        8.42143320        8.45821640        3.11614020
C        5.69924600        5.82257000        5.90176720
C        6.76288130        6.63943470        6.65163550
C        5.86919940        7.47341420        7.53124010
C        6.66954500        8.39669290        8.38215140
C        7.54890770        5.70908880        7.53678670
C        8.42775780        6.61768690        8.44524750
C        7.58288470        7.52580570        5.81700210
C        8.36244250        8.40677220        6.65242180
N        5.66813100        3.82904110        3.89577400
