&CONTROL
calculation = 'scf'
restart_mode = 'from_scratch'
verbosity = 'high'
wf_collect = .true.
pseudo_dir='/home/arpank/pseudopotentials/'
tprnfor = .true.
/
&SYSTEM
ibrav = 0
ecutwfc = 60
tot_charge = -1
nspin = 2
tot_magnetization = 2.0
nbnd = 480
nat = 215
ntyp = 2
input_dft = 'PBE0'
exx_fraction = 0.18
ecutfock = 120
/
&ELECTRONS
conv_thr = 1D-8
diago_full_acc=.true.
mixing_beta = 0.3
/
&IONS
ion_dynamics='bfgs'
ion_positions='default'
/
K_POINTS gamma
ATOMIC_SPECIES
C  12.01099968  C_ONCV_PBE-1.0.upf
N  14.00699997  N_ONCV_PBE-1.0.upf
CELL_PARAMETERS angstrom
    10.65000000      0.00000000      0.00000000
     0.00000000     10.65000000      0.00000000
     0.00000000      0.00000000     10.65000000
ATOMIC_POSITIONS angstrom
C        9.31926530        9.28860780        9.31710180
C       10.26740300       10.22661200       10.16609000
C        9.30113940        0.45747608        0.44669618
C       10.18121900        1.27774530        1.39874640
C        0.36359453        9.22195760        0.42676814
C        1.40085910       10.21857800        1.33277910
C        0.49090972        0.46911797        9.38241270
C        1.32916250        1.31452630       10.25336600
C        9.33942680        9.32169830        2.23060720
C       10.18680200       10.17589700        3.06812010
C        9.26228370        0.46912270        3.92555860
C       10.11620800        1.24453390        4.84813580
C        0.44137219        9.31135340        4.00734850
C        1.35755840       10.18747400        4.93990550
C        0.38519725        0.41318815        2.17266360
C        1.26651620        1.37066600        3.15393990
C        9.30248410        9.33772730        5.71828740
C       10.15465000       10.20923300        6.70929630
C        9.31930050        0.39323226        7.60766550
C       10.24265100        1.31595050        8.44194810
C        0.43998444        9.28430840        7.57860170
C        1.35668430       10.20817300        8.50071180
C        0.46085450        0.38410714        5.77026780
C        1.35754750        1.26325920        6.57779370
C        9.35240910        2.21592200        9.33042630
C       10.13728000        3.06715900       10.17309800
C        9.26398170        3.94820200        0.48214904
C       10.21943100        4.78735140        1.30383670
C        0.44662143        2.19479120        0.45550681
C        1.25971010        3.09381430        1.34485860
C        0.48388690        4.05617050        9.31533080
C        1.39269410        4.83403360       10.25579800
C        9.33330070        2.14962620        2.24160860
C       10.26083600        3.15493690        3.15451330
C        9.34498770        4.01493450        3.98459850
C       10.20939400        4.90057890        4.88465290
C        0.37878848        2.28325460        4.03832990
C        1.35393720        3.08048870        4.87018170
C        0.46230910        4.02057790        2.19390650
C        1.36501910        4.88144900        3.09377460
C        9.33128480        2.20990300        5.85325790
C       10.20827000        3.07647600        6.78123530
C        9.36272380        3.92676880        7.57643970
C       10.23031100        4.88199930        8.41634100
C        0.46732411        2.15537720        7.55329830
C        1.32046010        3.11567410        8.40285520
C        0.44477377        4.02996440        5.81532520
C        1.30492200        4.92812460        6.61318510
C        9.34186430        5.76858620        9.33914560
C       10.24248700        6.58962720       10.23684300
C        9.27424840        7.52951680        0.44004848
C       10.16766600        8.45106660        1.31143960
C        0.46389655        5.75339260        0.42776288
C        1.31186320        6.68504480        1.22797230
C        0.43152654        7.53589170        9.34696690
C        1.35975180        8.34336770       10.27764900
C        9.29992680        5.65096420        2.22654340
C       10.20079200        6.63145630        3.11915110
C        9.25682360        7.48989820        4.01643810
C       10.17027300        8.42327100        4.87135920
C        0.45155799        5.74873430        4.00926410
C        1.33906310        6.62377130        4.90936530
C        0.47425332        7.55070460        2.22555620
C        1.31581690        8.41259410        3.04819960
C        9.32457260        5.73540790        5.72187830
C       10.16229600        6.67409750        6.62297640
C        9.30018510        7.52838250        7.55386870
C       10.20688200        8.50513880        8.44559330
C        0.49656702        5.78424100        7.53454150
C        1.33342910        6.62840300        8.47449980
C        0.44308394        7.61183870        5.75581750
C        1.32661530        8.51216080        6.67862910
C        2.24432700        9.33881060        9.37814150
C        3.14807410       10.29218400       10.13937500
C        2.14810910        0.45763531        0.50876491
C        3.12334470        1.28800180        1.44054170
C        3.96008960        9.32527220        0.37382911
C        4.98631330       10.24770100        1.30656500
C        4.04437120        0.47172955        9.31377680
C        4.94408430        1.41267910       10.20271600
C        2.20642500        9.33830350        2.21535320
C        3.13301730       10.22115900        3.18340280
C        2.19106610        0.47260967        4.04644800
C        3.05466000        1.31619810        4.89791240
C        3.95289900        9.39560610        3.98365730
C        4.89166070       10.16527500        4.86274980
C        4.02591020        0.46788734        2.21009380
C        4.94211950        1.36317280        3.11251760
C        2.19521550        9.29261690        5.73607990
C        3.01300020       10.19638700        6.65383060
C        2.20354170        0.46010356        7.55777670
C        3.13998150        1.33488060        8.38162450
C        3.93282420        9.34633850        7.66415690
C        4.93690950       10.26925000        8.46757950
C        3.97776150        0.44758008        5.81538170
C        4.90612960        1.33798350        6.64094780
C        2.19011370        2.22950300        9.28991580
C        3.07103070        3.12117240       10.21401500
C        2.20325730        3.96531060        0.49155077
C        3.04811060        4.82754300        1.37517380
C        3.97156000        2.24628460        0.38702117
C        4.93759700        3.08458490        1.29399740
C        3.95508710        3.99773430        9.28120380
C        4.85298860        4.92607160       10.24923100
C        2.14295500        2.19964240        2.25402520
C        3.09781590        3.10411360        3.19194480
C        2.20393860        3.97335650        4.03373250
C        3.02400980        4.82690050        4.87396180
C        4.00637070        2.17819410        3.99001950
C        4.84967890        3.07894060        4.84875720
C        3.96723790        3.97929990        2.24282310
C        4.84544990        4.75603570        3.13247390
C        2.21423410        2.24618460        5.83202390
C        3.17558760        3.15113680        6.69352830
C        2.19505470        4.05300500        7.53944010
C        3.08943730        4.86166080        8.48788300
C        4.06161770        2.26552970        7.46806690
C        4.87917830        3.12278010        8.39737250
C        3.93635010        4.03486420        5.68542180
C        4.87588960        4.97341030        6.67901740
C        2.24324130        5.75031980        9.30896510
C        3.11889520        6.69705510       10.25845400
C        2.15754080        7.49860670        0.39766314
C        3.09832440        8.47696210        1.29473230
C        3.95423080        5.75474460        0.50625085
C        4.86647230        6.60190510        1.31034140
C        4.05907360        7.53867580        9.34017120
C        4.94305450        8.43032520       10.20681800
C        2.21507380        5.78457230        2.23398160
C        3.11661950        6.65455100        3.03457850
C        2.21580300        7.53654820        3.98263760
C        3.12971490        8.38039860        4.83889530
C        4.07154420        5.71657100        3.94050530
C        4.90827780        6.66114470        4.88781320
C        4.01551720        7.52754750        2.12759330
C        4.88306840        8.48864000        3.02776380
C        2.17558180        5.80368170        5.86411110
C        3.05045880        6.71114200        6.68529820
C        2.22657450        7.61317390        7.63970270
C        3.07922430        8.50208300        8.46866020
C        3.92094390        5.80602010        7.54406200
C        4.89306820        6.79727150        8.43222620
C        3.97300990        7.51775410        5.72628180
C        4.83602170        8.46950340        6.72549940
C        5.86963270        9.29513270        9.33001280
C        6.67833380       10.19895400       10.20679500
C        5.79099030        0.42171753        0.40752319
C        6.69476560        1.30718640        1.27667310
C        7.48968290        9.28344760        0.38335632
C        8.40320370       10.24934500        1.30337570
C        7.55704770        0.42875905        9.27960390
C        8.52106070        1.30891990       10.16327100
C        5.79629880        9.35531850        2.15413800
C        6.62214830       10.20654000        3.05227430
C        5.80213340        0.41655746        3.97532040
C        6.73251010        1.33394650        4.85114670
C        7.56601980        9.34806920        3.95584820
C        8.41120510       10.25365500        4.88783410
C        7.55951730        0.50649737        2.17943870
C        8.42301230        1.35788420        3.07001650
C        5.77119390        9.37310860        5.79955560
C        6.62295140       10.20513200        6.65909300
C        5.75255620        0.43397844        7.55342670
C        6.75212960        1.35345870        8.41772950
C        7.52664770        9.32609610        7.50350150
C        8.45055830       10.27376800        8.40636790
C        7.56518280        0.40198776        5.72753330
C        8.48092190        1.31294700        6.61217970
C        5.72003410        2.20274940        9.30055560
C        6.71178300        3.16301830       10.13178700
C        5.76425070        4.01686660        0.46771177
C        6.66445010        4.89768400        1.39502020
C        7.55087660        2.24234650        0.39137047
C        8.38462380        3.11409160        1.40270970
C        7.57978400        3.97282240        9.27277010
C        8.42714620        4.83104110       10.17931300
C        5.79681150        2.19830820        2.16487830
C        6.67393170        3.17352340        3.06103860
C        7.53852950        2.23074950        4.02012430
C        8.44849360        3.10590640        4.93513850
C        7.48882440        3.96229910        2.27484680
C        8.40156480        4.95511040        3.11898820
C        5.75245060        2.22765570        5.72596780
C        6.64620700        3.08793590        6.61440830
C        5.72848750        4.05440520        7.48534060
C        6.67801430        4.85305400        8.38108540
C        7.53727030        2.17438460        7.56255440
C        8.40648430        3.07509300        8.42140980
C        7.59431500        3.99282490        5.85822580
C        8.36146200        4.86042730        6.68927580
C        5.75586000        5.81161190        9.33964250
C        6.61003180        6.66150320       10.13807100
C        5.75212870        7.52648630        0.47900407
C        6.68384140        8.39361180        1.33161830
C        7.51346630        5.79414670        0.43505313
C        8.42393550        6.63576740        1.32782670
C        7.57780720        7.45229250        9.22383820
C        8.36456730        8.38300100       10.23735500
C        5.77311010        5.76241070        2.29584040
C        6.71789580        6.55491180        3.09329700
C        5.80740130        7.48683150        3.99136200
C        6.66585790        8.42127800        4.89671980
C        7.57887760        5.83118330        3.94353650
C        8.38822110        6.71644780        4.83602270
C        7.54339970        7.52637290        2.23627820
C        8.44462180        8.46313960        3.11609070
C        5.77553620        5.83426350        5.86421730
C        6.72293650        6.63783840        6.62469960
C        5.81324860        7.55052360        7.53076330
C        6.68486190        8.41739810        8.37399980
C        7.58727280        5.79959120        7.54859320
C        8.41725140        6.65203850        8.47434170
C        7.58978150        7.53235480        5.76334090
C        8.45755460        8.53809200        6.60338770
N        5.67765420        3.87400680        3.86904080
