&CONTROL
calculation = 'scf'
restart_mode = 'from_scratch'
verbosity = 'high'
wf_collect = .true.
pseudo_dir='/home/arpank/pseudopotentials/'
tprnfor = .true.
/
&SYSTEM
ibrav = 0
ecutwfc = 60
tot_charge = -1
nspin = 2
tot_magnetization = 2.0
nbnd = 480
nat = 215
ntyp = 2
input_dft = 'PBE0'
exx_fraction = 0.18
ecutfock = 120
/
&ELECTRONS
conv_thr = 1D-8
diago_full_acc=.true.
mixing_beta = 0.3
/
&IONS
ion_dynamics='bfgs'
ion_positions='default'
/
K_POINTS gamma
ATOMIC_SPECIES
C  12.01099968  C_ONCV_PBE-1.0.upf
N  14.00699997  N_ONCV_PBE-1.0.upf
CELL_PARAMETERS angstrom
    10.65000000      0.00000000      0.00000000
     0.00000000     10.65000000      0.00000000
     0.00000000      0.00000000     10.65000000
ATOMIC_POSITIONS angstrom
C        9.37350680        9.29960230        9.34088440
C       10.13878400       10.31745600       10.25848000
C        9.26977300        0.56277780        0.43455834
C       10.19386400        1.37950810        1.35430340
C        0.43866425        9.24928800        0.43939129
C        1.33063800       10.25758100        1.33296720
C        0.38056376        0.45350143        9.31646150
C        1.28132060        1.30285720       10.15665000
C        9.37742910        9.28669110        2.16716090
C       10.21734900       10.23474100        3.10914650
C        9.27114800        0.41515215        4.03923840
C       10.19255200        1.25924170        4.90148400
C        0.43759664        9.38938420        3.99539580
C        1.31212700       10.23324400        4.88362100
C        0.40860827        0.49748004        2.24022840
C        1.31725300        1.31147830        3.10924370
C        9.30000300        9.35638660        5.72627900
C       10.21141600       10.28952200        6.68687410
C        9.31988040        0.41448105        7.61616730
C       10.18909300        1.33341170        8.46633010
C        0.36494594        9.32632990        7.63536620
C        1.25870030       10.25784500        8.49314250
C        0.48087128        0.42050138        5.82863940
C        1.31284410        1.33438400        6.63449080
C        9.32284180        2.22652820        9.38477530
C       10.26218900        3.02787820       10.22790400
C        9.33751130        3.95918760        0.45709873
C       10.21177100        4.82876810        1.41615500
C        0.49752039        2.21439010        0.41112050
C        1.33279550        3.13194190        1.27215140
C        0.45712439        3.85605740        9.32520550
C        1.30812030        4.87703270       10.14880900
C        9.34946750        2.32579690        2.27420670
C       10.19994000        3.13374920        3.12322780
C        9.31144920        3.94413800        3.99934510
C       10.20641000        4.89724980        4.92406310
C        0.41468832        2.17663330        3.99584280
C        1.34812890        3.05627060        4.86110220
C        0.45752322        3.95222340        2.25015790
C        1.30937110        4.81845750        3.06696370
C        9.30066760        2.15780020        5.73474060
C       10.21776300        3.12939240        6.62407250
C        9.30172570        4.02415160        7.54874370
C       10.25579000        4.88144440        8.40367580
C        0.40513756        2.23820950        7.61297840
C        1.35654360        3.06086910        8.46047270
C        0.51616724        3.94173710        5.73454330
C        1.29600580        4.86120310        6.63512960
C        9.33396110        5.72576880        9.34337390
C       10.27423900        6.66444970       10.19112200
C        9.31713580        7.54128400        0.51871897
C       10.20926600        8.38711040        1.33131330
C        0.50317088        5.71183190        0.38479769
C        1.33497970        6.71988570        1.33588630
C        0.51346485        7.51647740        9.33324310
C        1.29987270        8.37959640       10.18696500
C        9.31269880        5.72307720        2.18837750
C       10.17290300        6.70373990        3.11271660
C        9.33866490        7.51236450        3.98913610
C       10.26372600        8.49153080        4.94470620
C        0.44458231        5.72019390        3.91684400
C        1.36483420        6.66162330        4.83728020
C        0.39634719        7.55419620        2.26173650
C        1.25636110        8.50642430        3.08242920
C        9.31502720        5.79621230        5.83915780
C       10.21834900        6.64979000        6.68191450
C        9.33664470        7.54006400        7.60834590
C       10.26331400        8.44033900        8.42098360
C        0.47053655        5.68309750        7.49047160
C        1.32314780        6.62715350        8.39893190
C        0.50910982        7.55667480        5.76283760
C        1.31703810        8.46657650        6.70476860
C        2.15799410        9.36963830        9.27745800
C        3.09499170       10.21141900       10.17460400
C        2.16817630        0.48711776        0.42962651
C        3.07280670        1.32781170        1.24860430
C        4.02034670        9.22866330        0.42628742
C        4.89505300       10.23783000        1.34975070
C        3.99812690        0.43966467        9.26570540
C        4.81538920        1.37505870       10.17711100
C        2.27044330        9.30760860        2.06719620
C        3.05125300       10.17660300        3.06890250
C        2.21224860        0.42726659        3.96952200
C        3.07734550        1.30037840        4.84024140
C        4.00915080        9.30705050        3.99465610
C        4.86606760       10.23975700        4.82107670
C        3.98612480        0.46460371        2.14675450
C        4.86896360        1.38933310        3.11632950
C        2.16275500        9.34805400        5.82750690
C        3.15497870       10.25222500        6.64508160
C        2.23876360        0.42374664        7.50750130
C        3.10281030        1.31599660        8.39701240
C        4.00569630        9.28402060        7.53792220
C        4.85990720       10.22287400        8.47053570
C        4.02746690        0.47974837        5.71074160
C        4.82281180        1.32739170        6.68525500
C        2.17392780        2.23052010        9.31672500
C        3.10587960        3.06729250       10.12368100
C        2.23531620        4.02361310        0.45055305
C        3.09800730        4.81244390        1.26833940
C        4.07553760        2.17291810        0.45680642
C        4.90374150        3.14874290        1.27170690
C        4.01425380        3.96025220        9.32203770
C        4.85687510        4.91322730       10.18469800
C        2.24245230        2.25095870        2.21002150
C        3.13333640        3.12860910        3.02996770
C        2.18438190        4.03222940        3.96318740
C        3.11944990        4.79795130        4.89785260
C        3.94091860        2.24887800        4.03608070
C        4.86540130        3.06682080        4.85255820
C        3.92519080        3.99495760        2.15433180
C        4.84872890        4.87111780        3.05169210
C        2.27873070        2.18126590        5.79115260
C        3.10973680        3.08318750        6.69965160
C        2.29216240        3.99245370        7.61879580
C        3.18210830        4.88586510        8.45227290
C        3.99538270        2.18070440        7.52055840
C        4.86450260        3.13558950        8.43400630
C        4.01807160        3.98231880        5.83835020
C        4.95573380        4.90507990        6.64005770
C        2.24663440        5.72453110        9.29843220
C        3.16886160        6.60608700       10.20223500
C        2.27177600        7.49406020        0.42319297
C        3.15770940        8.38064940        1.37403730
C        3.96572330        5.77241260        0.36884365
C        4.89457400        6.72432860        1.37000620
C        3.97029390        7.51770220        9.35425620
C        4.86053400        8.42976060       10.22327300
C        2.15088240        5.72676870        2.14393740
C        3.07482510        6.68207590        3.05606280
C        2.14874110        7.51111800        3.95031990
C        3.13316210        8.35953020        4.83973220
C        4.03424690        5.70793060        3.98095250
C        4.92070170        6.69277890        4.88370960
C        4.00629590        7.53762100        2.14960660
C        4.89273420        8.42136180        3.07461920
C        2.24995630        5.79087150        5.78846880
C        3.14223060        6.61672520        6.65014120
C        2.19668940        7.58616710        7.57890240
C        3.08767530        8.44968830        8.48699180
C        4.05799210        5.79008970        7.59431500
C        4.89950520        6.67449200        8.42082500
C        4.00388220        7.49996410        5.68922000
C        4.79803350        8.43615970        6.55401810
C        5.77407900        9.30161870        9.30730640
C        6.59392400       10.23847700       10.32552100
C        5.76262550        0.52813053        0.41004001
C        6.75459590        1.34679430        1.33176080
C        7.49972660        9.33640990        0.44715165
C        8.41772060       10.20538700        1.43780040
C        7.56784080        0.40679951        9.34084540
C        8.34217070        1.35860770       10.18853300
C        5.77518150        9.37574280        2.23854730
C        6.62891250       10.17940300        3.11862990
C        5.83601370        0.43417355        4.03027450
C        6.66151730        1.33387520        4.87831410
C        7.48065280        9.30197860        3.97211680
C        8.42788370       10.21539600        4.91144490
C        7.53804960        0.48265171        2.18508120
C        8.43451940        1.36764910        3.09319360
C        5.68766730        9.40142630        5.73420560
C        6.59651970       10.16753500        6.70045970
C        5.74016850        0.46692726        7.52416680
C        6.62743430        1.35822180        8.36476120
C        7.55492230        9.25446540        7.52141240
C        8.38592920       10.19666400        8.44299910
C        7.58824550        0.39520788        5.79405300
C        8.42395500        1.30741570        6.63277590
C        5.79416710        2.21805030        9.32326480
C        6.68213440        3.09509990       10.27132400
C        5.80237020        4.02385020        0.42100676
C        6.76102350        4.84183200        1.26955430
C        7.52259530        2.23698230        0.48273811
C        8.40755950        3.17409630        1.33360920
C        7.56859360        4.01107740        9.30165020
C        8.52109180        4.88457850       10.25772300
C        5.82627930        2.19818440        2.24493680
C        6.52559680        3.13053650        3.12498300
C        7.52657750        2.29052000        4.04670590
C        8.41950510        3.10457810        4.90742810
C        7.43519940        3.98473860        2.29445370
C        8.38628380        4.78450560        3.18228750
C        5.78325330        2.22979030        5.73510200
C        6.67060310        3.16417420        6.61139490
C        5.81031160        4.00741540        7.50961430
C        6.68588090        4.90317030        8.43799730
C        7.54958630        2.22263920        7.52054170
C        8.47911560        3.06322070        8.47147000
C        7.55028610        3.98075480        5.81427220
C        8.41395500        4.83435490        6.61284220
C        5.79109500        5.79039930        9.33410970
C        6.65239540        6.65240690       10.21847700
C        5.74518250        7.58512820        0.47642861
C        6.68154230        8.49525610        1.34541030
C        7.54905980        5.71362880        0.39733491
C        8.44313800        6.62119260        1.33095490
C        7.49901320        7.54788300        9.32168900
C        8.41170480        8.44991630       10.30002300
C        5.80964360        5.71295090        2.22042400
C        6.73336560        6.60026240        3.07504650
C        5.81548430        7.50251920        4.00883060
C        6.69283930        8.51709600        4.82957960
C        7.65133650        5.84347000        3.98007430
C        8.42778770        6.68532580        4.90948090
C        7.55693680        7.53020500        2.23433480
C        8.46400540        8.43060790        3.12399980
C        5.78059690        5.86281670        5.81990020
C        6.64064580        6.66083780        6.67073180
C        5.73158670        7.58764570        7.50848980
C        6.63546390        8.43201340        8.48890640
C        7.47354820        5.80147970        7.52601320
C        8.41724460        6.68381940        8.49389320
C        7.51983740        7.61699340        5.78456680
C        8.43744000        8.42939420        6.74497980
N        5.63016760        3.89441280        3.94064550
