&CONTROL
calculation = 'scf'
restart_mode = 'from_scratch'
verbosity = 'high'
wf_collect = .true.
pseudo_dir='/home/arpank/pseudopotentials/'
tprnfor = .true.
/
&SYSTEM
ibrav = 0
ecutwfc = 60
tot_charge = -1
nspin = 2
tot_magnetization = 2.0
nbnd = 480
nat = 215
ntyp = 2
input_dft = 'PBE0'
exx_fraction = 0.18
ecutfock = 120
/
&ELECTRONS
conv_thr = 1D-8
diago_full_acc=.true.
mixing_beta = 0.3
/
&IONS
ion_dynamics='bfgs'
ion_positions='default'
/
K_POINTS gamma
ATOMIC_SPECIES
C  12.01099968  C_ONCV_PBE-1.0.upf
N  14.00699997  N_ONCV_PBE-1.0.upf
CELL_PARAMETERS angstrom
    10.65000000      0.00000000      0.00000000
     0.00000000     10.65000000      0.00000000
     0.00000000      0.00000000     10.65000000
ATOMIC_POSITIONS angstrom
C        9.33424350        9.35793640        9.31142870
C       10.24551600       10.20958100       10.18047200
C        9.34285180        0.43520028        0.45232677
C       10.20774800        1.37001710        1.26915680
C        0.45424709        9.31302690        0.36340376
C        1.32252250       10.15446000        1.35219440
C        0.40763649        0.39699268        9.32179390
C        1.36091140        1.35178560       10.16177000
C        9.36001700        9.34599610        2.22509350
C       10.19716700       10.24811100        3.18245320
C        9.33161240        0.43471866        3.98625360
C       10.14076900        1.30069770        4.89142750
C        0.39727171        9.29361000        4.01472600
C        1.35388700       10.17195500        4.89769780
C        0.44199939        0.47157455        2.15758400
C        1.39851560        1.32103290        3.10796420
C        9.33493320        9.36682420        5.75098870
C       10.27085400       10.24388500        6.64429200
C        9.34617670        0.42702433        7.53157760
C       10.30184500        1.42698230        8.49303620
C        0.46846868        9.29454960        7.55248310
C        1.29190200       10.23553600        8.44356100
C        0.48863671        0.46842484        5.74591360
C        1.36118820        1.42967720        6.63155920
C        9.27077780        2.22685210        9.35684000
C       10.22702000        3.19408790       10.25374100
C        9.38549530        4.00793160        0.51109252
C       10.17468000        4.86060670        1.26833900
C        0.48271055        2.19593810        0.44976290
C        1.38849350        3.10395090        1.36869620
C        0.42571178        4.08329790        9.35641710
C        1.31085140        4.88203760       10.16134900
C        9.35623500        2.23711380        2.28466140
C       10.24847600        3.07461430        3.11700470
C        9.35720500        3.92468200        3.98840960
C       10.19904900        4.91770600        4.87098520
C        0.50509498        2.25676190        4.02935100
C        1.37136970        3.14422480        4.87098090
C        0.38668009        4.04235910        2.21116210
C        1.31535200        4.88775140        3.07450480
C        9.26555120        2.19928860        5.81828610
C       10.14853400        3.17079430        6.66462300
C        9.34302810        3.99448670        7.54765900
C       10.19366400        4.91742790        8.49325800
C        0.32479130        2.27902240        7.55779550
C        1.34297280        3.13616510        8.40384070
C        0.45990258        4.02430040        5.74152350
C        1.34056320        4.89716610        6.66692040
C        9.23699290        5.75003660        9.30556630
C       10.22317700        6.66355400       10.19452100
C        9.32964690        7.53016870        0.43899930
C       10.16221900        8.33979310        1.35056640
C        0.44055717        5.80455950        0.46580853
C        1.33732880        6.66750670        1.39147510
C        0.46096276        7.47012310        9.36291410
C        1.27962360        8.40750900       10.20860200
C        9.32277530        5.85706530        2.17042630
C       10.25671400        6.65228600        3.09400940
C        9.28770060        7.60411050        3.97884530
C       10.23914600        8.43213400        4.93088950
C        0.46163593        5.74759250        3.89606590
C        1.32138060        6.60265520        4.83631170
C        0.53500082        7.50493880        2.21673870
C        1.31782740        8.42396340        3.14896900
C        9.32862750        5.76806830        5.80754280
C       10.22131700        6.59885540        6.70357520
C        9.36584570        7.61562340        7.52742200
C       10.23528300        8.51790110        8.44468960
C        0.42091287        5.80339390        7.48472420
C        1.27822100        6.64261560        8.41166150
C        0.46831785        7.56744810        5.73910850
C        1.34137750        8.46013440        6.68429120
C        2.16090870        9.38347310        9.38749030
C        3.08756870       10.20610300       10.21880900
C        2.23838400        0.44667935        0.42996156
C        3.06144930        1.30972560        1.36939250
C        3.95488620        9.32799800        0.44924689
C        4.87994120       10.21187600        1.37276970
C        4.00740320        0.40582990        9.27721530
C        4.92213250        1.33617070       10.24451400
C        2.16695830        9.27710750        2.20159940
C        3.08870780       10.21723700        3.11226650
C        2.22587840        0.35041862        4.01418870
C        3.08052150        1.29165020        4.87424550
C        3.96479650        9.30784540        3.89448030
C        4.89192480       10.11818400        4.83402430
C        3.98348390        0.37955948        2.17199230
C        4.81072530        1.29091750        3.07268510
C        2.13791920        9.31341010        5.79960250
C        3.07237450       10.23460300        6.60823340
C        2.27928190        0.48004253        7.57729630
C        3.14528640        1.27568570        8.38600590
C        4.09234910        9.38784020        7.55720250
C        4.90075560       10.17639500        8.40770830
C        4.08078810        0.42737279        5.72739180
C        4.93520660        1.30192650        6.60855590
C        2.24835250        2.14961020        9.30060200
C        3.02929120        3.05447190       10.13191200
C        2.21928650        3.99847070        0.41422348
C        3.12525560        4.89045090        1.28970860
C        3.90827750        2.27177040        0.39896799
C        4.83988510        3.14720280        1.29880570
C        3.93983960        3.96099810        9.26643030
C        4.84168510        4.84899760       10.11329200
C        2.17810270        2.20655150        2.22173370
C        3.09238370        3.19469400        3.05322080
C        2.16645880        4.03308090        3.97503720
C        3.05245190        4.89569060        4.88218130
C        3.98605810        2.15909020        3.89741220
C        4.87008790        3.11890670        4.82442910
C        3.97830650        3.97434480        2.12691200
C        4.88639640        4.83993430        3.14582380
C        2.32460240        2.27872790        5.80204690
C        3.17397730        3.19558240        6.64841750
C        2.25940590        3.97019160        7.54973090
C        3.17501850        4.88837960        8.32516520
C        4.00577610        2.24039880        7.56296070
C        4.84661500        3.08163260        8.45555330
C        4.01972850        3.96391660        5.71192420
C        4.86009000        4.87246460        6.59951840
C        2.21057590        5.72301180        9.31809890
C        3.06814060        6.64651050       10.19372500
C        2.16766280        7.47405740        0.47246140
C        3.03845690        8.45228210        1.30337270
C        3.95045570        5.78442080        0.41981184
C        4.86409870        6.69581540        1.34599480
C        3.98750160        7.54066430        9.36278460
C        4.85041280        8.47168560       10.15867600
C        2.21185180        5.73273760        2.17885260
C        3.21736750        6.62552680        3.10368740
C        2.24659850        7.52185400        4.00548000
C        3.09863250        8.45745200        4.82487160
C        4.00511940        5.72791390        3.97843410
C        4.87004040        6.59292920        4.86885110
C        4.02144600        7.54423320        2.24720360
C        4.87460100        8.37054980        3.18403580
C        2.21669920        5.78800820        5.76024950
C        3.05152060        6.70958800        6.57439960
C        2.19292310        7.56819580        7.53222460
C        3.11445650        8.43402210        8.42061250
C        4.05552120        5.74814670        7.46327720
C        4.96096070        6.63050260        8.37440620
C        4.07793660        7.52449440        5.75224520
C        4.88540780        8.47109370        6.68074470
C        5.79787110        9.32723360        9.34957500
C        6.68746620       10.22623400       10.32111100
C        5.75052400        0.38791543        0.61455357
C        6.58399120        1.31196540        1.37191670
C        7.54940840        9.25919610        0.47102039
C        8.40429840       10.19436400        1.39124760
C        7.51452910        0.45885120        9.44848380
C        8.43425610        1.41028140       10.30294800
C        5.73130410        9.29534230        2.15823970
C        6.60512360       10.18101600        3.08328820
C        5.74120570        0.37991367        4.00030600
C        6.65491540        1.31400380        4.85184770
C        7.57420900        9.31018240        4.00256520
C        8.45243600       10.24769400        4.85982800
C        7.50366480        0.48791180        2.22053190
C        8.45148880        1.26612590        3.07069750
C        5.77432550        9.32346840        5.76445200
C        6.60989000       10.20202800        6.73337860
C        5.71424220        0.44519523        7.51357140
C        6.63742360        1.32028810        8.48738780
C        7.60039740        9.29596600        7.60913760
C        8.45541150       10.22959900        8.47092520
C        7.53635340        0.46128688        5.84732450
C        8.36611870        1.28838310        6.68898160
C        5.70992010        2.25475390        9.41346680
C        6.64317890        3.03933790       10.29122300
C        5.75000950        4.12071730        0.44105914
C        6.65277950        4.89715540        1.34570160
C        7.56910980        2.25472090        0.46880862
C        8.51076700        3.09050710        1.36599370
C        7.60083600        4.00477050        9.32980960
C        8.42016840        4.89103130       10.22303900
C        5.76741110        2.20891960        2.18907180
C        6.54606190        3.06200340        3.05492240
C        7.51986130        2.21769720        3.95081810
C        8.40244590        3.07248720        4.92373220
C        7.56145900        3.98943530        2.26130950
C        8.41400400        4.85827990        3.14304150
C        5.79406430        2.24090450        5.77672330
C        6.63172290        3.07196150        6.65655560
C        5.73303920        3.95857640        7.59474140
C        6.65427690        4.85109180        8.36981750
C        7.56695590        2.18581860        7.60920410
C        8.45138750        3.13591410        8.42427340
C        7.61350140        3.95639220        5.80209130
C        8.46081700        4.80881300        6.69734990
C        5.75830940        5.77756540        9.23434960
C        6.67690630        6.71135380       10.17589700
C        5.75759120        7.55218560        0.45480391
C        6.66842710        8.42163230        1.29802950
C        7.50757840        5.76869100        0.46402449
C        8.47210610        6.63993980        1.35146040
C        7.57702650        7.54190610        9.32710200
C        8.47104840        8.38386140       10.23809800
C        5.69093310        5.80684970        2.24336740
C        6.65396960        6.66987980        3.12098690
C        5.75574050        7.53821630        4.04460270
C        6.66382130        8.44791830        4.87942850
C        7.64381960        5.81537320        4.00107400
C        8.43882140        6.60937950        4.87438110
C        7.55264200        7.51024600        2.20484630
C        8.40001050        8.42956790        3.11982300
C        5.68374100        5.85248690        5.81717200
C        6.61675870        6.64779560        6.60865340
C        5.82078070        7.53455170        7.54110470
C        6.73282170        8.46539800        8.44414390
C        7.52816980        5.78981510        7.54797270
C        8.38020240        6.68381190        8.44123580
C        7.53637790        7.55914360        5.75170420
C        8.45735590        8.43690200        6.58576920
N        5.69754490        3.84793060        3.93036440
