&CONTROL
calculation = 'scf'
restart_mode = 'from_scratch'
verbosity = 'high'
wf_collect = .true.
pseudo_dir='/home/arpank/pseudopotentials/'
tprnfor = .true.
/
&SYSTEM
ibrav = 0
ecutwfc = 60
tot_charge = -1
nspin = 2
tot_magnetization = 2.0
nbnd = 480
nat = 215
ntyp = 2
input_dft = 'PBE0'
exx_fraction = 0.18
ecutfock = 120
/
&ELECTRONS
conv_thr = 1D-8
diago_full_acc=.true.
mixing_beta = 0.3
/
&IONS
ion_dynamics='bfgs'
ion_positions='default'
/
K_POINTS gamma
ATOMIC_SPECIES
C  12.01099968  C_ONCV_PBE-1.0.upf
N  14.00699997  N_ONCV_PBE-1.0.upf
CELL_PARAMETERS angstrom
    10.65000000      0.00000000      0.00000000
     0.00000000     10.65000000      0.00000000
     0.00000000      0.00000000     10.65000000
ATOMIC_POSITIONS angstrom
C        9.27849480        9.29143140        9.33036180
C       10.22364400       10.21998300       10.25236000
C        9.25729590        0.38350027        0.50920931
C       10.24033600        1.27086600        1.33515450
C        0.39849408        9.34040370        0.42142255
C        1.27476090       10.25733000        1.25579450
C        0.36839296        0.44907499        9.32559170
C        1.29953350        1.34005720       10.12351600
C        9.27877300        9.33036130        2.18723330
C       10.16988400       10.21594300        3.13784740
C        9.30109480        0.49693348        3.97886070
C       10.18548200        1.30588500        4.85995810
C        0.38649898        9.31583830        3.98473970
C        1.32273060       10.19571200        4.90717080
C        0.42966435        0.46032560        2.24016020
C        1.28740910        1.34602790        3.16731690
C        9.36669050        9.35527790        5.74922250
C       10.21987000       10.25979300        6.67032030
C        9.34174310        0.41503851        7.56565600
C       10.20495500        1.32409190        8.37727940
C        0.38726283        9.34871510        7.56413540
C        1.40256330       10.19570200        8.48692230
C        0.47680527        0.45711407        5.79560780
C        1.37579120        1.35425930        6.65022100
C        9.31747760        2.18321730        9.27687590
C       10.22163900        3.06184770       10.17445500
C        9.34927130        4.02985760        0.48240679
C       10.22740700        4.84333960        1.31793150
C        0.47090357        2.21415660        0.40863836
C        1.29577580        3.13190280        1.33354460
C        0.50424913        3.95870200        9.26294130
C        1.33176300        4.90232720       10.15241100
C        9.30620280        2.24277850        2.22750060
C       10.16740300        3.14222410        3.07332100
C        9.25059600        4.05509620        3.99133520
C       10.17126900        4.87800320        4.92562100
C        0.44214146        2.21551660        3.93452300
C        1.29730240        3.16063950        4.87952250
C        0.47883763        3.98298480        2.31826020
C        1.25555790        4.95019410        3.11871440
C        9.37984300        2.27241040        5.69198870
C       10.19179400        3.09155850        6.69229450
C        9.25644160        3.97871220        7.68151410
C       10.26571200        4.81176650        8.46766580
C        0.47003683        2.15249030        7.49357650
C        1.39221540        3.10595010        8.44771370
C        0.40352638        3.94352260        5.82914960
C        1.41873610        4.85034520        6.65184980
C        9.32963000        5.77597880        9.35647990
C       10.19767900        6.59729340       10.25340600
C        9.28162480        7.53384220        0.43674333
C       10.11174200        8.45237440        1.32379930
C        0.45330615        5.77087920        0.49897843
C        1.35375900        6.69106690        1.37127970
C        0.45489598        7.54374900        9.32537320
C        1.33445710        8.43133840       10.10870100
C        9.41228880        5.76479140        2.23055880
C       10.24301300        6.69272910        3.08418070
C        9.39046420        7.54983790        4.05100670
C       10.18744800        8.44922170        4.82644310
C        0.39818627        5.79221280        4.08053560
C        1.37815890        6.63350810        4.95630260
C        0.50135419        7.56585770        2.28858000
C        1.31178350        8.42431130        3.04760480
C        9.30016540        5.76702080        5.76853510
C       10.16019700        6.67373950        6.68893120
C        9.34719420        7.51924640        7.53437770
C       10.20956300        8.46458370        8.43407390
C        0.49700456        5.72167580        7.54418170
C        1.38539950        6.65801550        8.46338470
C        0.51213793        7.51381360        5.72466440
C        1.32579590        8.46949780        6.61505160
C        2.28975870        9.27589880        9.31379040
C        3.11871120       10.24252500       10.16994900
C        2.17683120        0.52819623        0.38281585
C        3.06758630        1.35144120        1.36099860
C        4.04980490        9.33429630        0.44307673
C        4.88513940       10.19555200        1.38976190
C        3.96178120        0.46043599        9.25519080
C        4.82241420        1.29419890       10.14632700
C        2.27844700        9.29753170        2.13175690
C        3.05244980       10.25350100        3.09301780
C        2.28366080        0.48920904        3.98187710
C        3.10756310        1.34595790        4.87308700
C        3.89418270        9.36079340        3.99825470
C        4.90543910       10.20534200        4.82468310
C        4.04764430        0.43228222        2.29262190
C        4.86561670        1.33014270        3.15162000
C        2.25639120        9.40139920        5.79541110
C        3.18553700       10.19511100        6.64273420
C        2.20603060        0.40717544        7.52462030
C        3.10047370        1.35096980        8.38281360
C        4.06939710        9.38020770        7.51298580
C        4.86247410       10.27455200        8.39179240
C        4.03295520        0.52886291        5.69400320
C        4.99088630        1.35973570        6.56870520
C        2.22851240        2.24074510        9.33947690
C        3.01113240        3.12424700       10.25746900
C        2.22018280        3.97989120        0.43002495
C        3.12126550        4.87023520        1.42814280
C        4.01741300        2.23040580        0.51260583
C        4.84685250        3.12426170        1.37739770
C        3.93822390        3.95663000        9.27830200
C        4.89042080        4.87220110       10.20104900
C        2.19201450        2.23570040        2.22281270
C        3.11274260        3.15059280        3.12421500
C        2.14753900        3.96225570        3.95312770
C        3.08943000        4.90097910        4.79973600
C        3.87058730        2.23843370        3.99706350
C        4.82531020        3.11465370        4.81860010
C        3.99314290        3.92783410        2.24205040
C        4.88665370        4.83855010        3.13177530
C        2.21756670        2.21936800        5.70334930
C        3.13066390        3.11114010        6.62310060
C        2.25885540        3.96869160        7.49743720
C        3.09755560        4.83349350        8.38263410
C        3.97096470        2.22609640        7.51348960
C        4.89422470        3.09071300        8.44659270
C        4.05135310        4.00313870        5.69967830
C        4.88057420        4.87403580        6.62826450
C        2.30405010        5.77563910        9.25633890
C        3.11906820        6.66369610       10.17943400
C        2.26545520        7.48940100        0.41604956
C        3.13281520        8.49875640        1.20096660
C        3.96779460        5.73534640        0.51107291
C        4.92008320        6.70592770        1.32537070
C        4.00145430        7.52426620        9.32451610
C        4.86880640        8.46588310       10.16240100
C        2.17093010        5.82876680        2.25522010
C        3.15782310        6.62484390        3.10542680
C        2.21011940        7.57354770        3.99119450
C        3.13790630        8.39339540        4.86755620
C        4.02464060        5.75005460        3.99114660
C        4.98388770        6.64627550        4.88201720
C        3.96344550        7.60073040        2.16026460
C        4.86887060        8.41220260        3.11925960
C        2.26928560        5.76985680        5.75301680
C        3.10797210        6.63988150        6.62691730
C        2.25773280        7.56887400        7.49653750
C        3.20507500        8.42445060        8.39490260
C        3.97274580        5.78611880        7.53749630
C        4.88828360        6.63070430        8.41480670
C        3.96669460        7.52967710        5.72403740
C        4.85389770        8.45374190        6.61115130
C        5.73982010        9.32195430        9.28500180
C        6.68851900       10.22866300       10.23400200
C        5.73269180        0.38171748        0.52371900
C        6.66354190        1.29019680        1.36714710
C        7.52632170        9.30903750        0.47035408
C        8.36960410       10.15119000        1.28324830
C        7.53640380        0.35740829        9.31648980
C        8.34351640        1.27993680       10.21972400
C        5.74130180        9.23309810        2.24351800
C        6.65508190       10.14618800        3.10943970
C        5.80975870        0.44419769        3.96145070
C        6.60073180        1.44427240        4.85325590
C        7.58040580        9.27741850        4.01243770
C        8.46181610       10.20541300        4.85728320
C        7.55902080        0.48665870        2.22813810
C        8.46260620        1.30774920        3.12444050
C        5.78514630        9.35387820        5.75653240
C        6.71450850       10.19945100        6.70228210
C        5.78768800        0.42883364        7.53754230
C        6.55010700        1.31969170        8.46731280
C        7.52311000        9.31195580        7.55559950
C        8.45579660       10.24591100        8.50605360
C        7.55053410        0.46838816        5.75521260
C        8.40170670        1.33353160        6.68037670
C        5.77551820        2.14364140        9.35023110
C        6.63955540        3.13361450       10.27034700
C        5.78190480        4.02848020        0.50538189
C        6.63094970        4.84287240        1.29710180
C        7.53045890        2.20849350        0.42006449
C        8.45065300        3.12612570        1.28992610
C        7.48443740        3.93922280        9.27214400
C        8.44154900        4.92912650       10.22048200
C        5.76383970        2.19643680        2.25253740
C        6.56617770        3.12727360        3.13269510
C        7.48496870        2.23303860        4.03088870
C        8.44457680        3.16530790        4.90142470
C        7.46251950        3.96764110        2.22734470
C        8.42474360        4.96558860        3.07011650
C        5.71438150        2.29347060        5.72373770
C        6.67889570        3.12631370        6.60210430
C        5.75993400        3.95465790        7.58035570
C        6.63993090        4.85483950        8.40972570
C        7.47145480        2.25472610        7.61724100
C        8.38545980        3.12649000        8.42052080
C        7.66214980        3.94893510        5.86837090
C        8.38846880        4.92787570        6.68125310
C        5.80339540        5.72434060        9.26318910
C        6.68115130        6.66122440       10.22997100
C        5.77630410        7.56293530        0.43907767
C        6.68214830        8.36945400        1.36679050
C        7.54907380        5.72439000        0.47280893
C        8.39498610        6.59421440        1.33036600
C        7.51960640        7.55886820        9.34660800
C        8.39342240        8.43904560       10.21244200
C        5.76468540        5.68654380        2.24160390
C        6.66648980        6.64786710        3.15274750
C        5.83195400        7.50599370        3.93901420
C        6.68110450        8.43522700        4.82756290
C        7.63842120        5.73972160        4.02642760
C        8.46101810        6.58966320        4.97707950
C        7.56980910        7.47454480        2.25881940
C        8.42074010        8.42808210        3.05426440
C        5.63743230        5.88507800        5.85316770
C        6.56917290        6.66007550        6.67685540
C        5.74569480        7.56424570        7.64433080
C        6.68312960        8.39669080        8.47638670
C        7.58789150        5.69515300        7.53464730
C        8.42916470        6.64027620        8.49229340
C        7.53785380        7.54946260        5.77590230
C        8.54271930        8.40537680        6.62733270
N        5.70467210        3.92757820        3.93803840
