&CONTROL
calculation = 'scf'
restart_mode = 'from_scratch'
verbosity = 'high'
wf_collect = .true.
pseudo_dir='/home/arpank/pseudopotentials/'
tprnfor = .true.
/
&SYSTEM
ibrav = 0
ecutwfc = 60
tot_charge = -1
nspin = 2
tot_magnetization = 2.0
nbnd = 480
nat = 215
ntyp = 2
input_dft = 'PBE0'
exx_fraction = 0.18
ecutfock = 120
/
&ELECTRONS
conv_thr = 1D-8
diago_full_acc=.true.
mixing_beta = 0.3
/
&IONS
ion_dynamics='bfgs'
ion_positions='default'
/
K_POINTS gamma
ATOMIC_SPECIES
C  12.01099968  C_ONCV_PBE-1.0.upf
N  14.00699997  N_ONCV_PBE-1.0.upf
CELL_PARAMETERS angstrom
    10.65000000      0.00000000      0.00000000
     0.00000000     10.65000000      0.00000000
     0.00000000      0.00000000     10.65000000
ATOMIC_POSITIONS angstrom
C        9.23453640        9.37484470        9.30622880
C       10.25857200       10.18646600       10.17848900
C        9.34259580        0.43751615        0.41658251
C       10.17298100        1.42094940        1.37474390
C        0.43969697        9.32744580        0.45493955
C        1.34432730       10.19475300        1.32914490
C        0.44710918        0.45249553        9.28886840
C        1.26964550        1.31363360       10.19730600
C        9.27461930        9.29801420        2.31747830
C       10.21034100       10.24082100        3.15003050
C        9.36469350        0.40106801        4.05296030
C       10.14140500        1.29831820        4.90451500
C        0.50209460        9.34081910        4.00379810
C        1.37862590       10.23177800        4.93313500
C        0.44235210        0.42794961        2.23842680
C        1.35792730        1.32778560        3.14234330
C        9.32976030        9.29798970        5.84645370
C       10.21464600       10.14369000        6.72126830
C        9.38711870        0.44215418        7.55542480
C       10.21565300        1.36540880        8.42743970
C        0.45502249        9.34355880        7.58139500
C        1.35540310       10.24239100        8.41113660
C        0.44398591        0.43515232        5.82343730
C        1.28335550        1.30301120        6.60815990
C        9.33537860        2.25846090        9.32466560
C       10.18470500        3.12676340       10.22176800
C        9.29965630        4.02738920        0.47355198
C       10.12265300        4.85321250        1.27536500
C        0.35494274        2.27562240        0.41502535
C        1.34284720        3.14831230        1.27683120
C        0.40396915        3.98372860        9.32908840
C        1.33727620        4.84285620       10.20857500
C        9.33466770        2.26260430        2.21737020
C       10.17223800        3.12814790        3.11247530
C        9.28931450        4.07809800        3.92127160
C       10.15017600        4.86733320        4.94098270
C        0.40833901        2.26260580        3.98397780
C        1.27032970        3.15449280        4.86027670
C        0.39956350        4.04687270        2.25733000
C        1.29164410        4.80317020        3.12205770
C        9.32235750        2.21258810        5.80724360
C       10.16480600        3.15349280        6.72586340
C        9.35377230        4.05171560        7.62879020
C       10.14363500        4.82812290        8.41220800
C        0.35477618        2.21680520        7.54897950
C        1.35826280        3.14328110        8.38568150
C        0.38889660        4.03172200        5.79845190
C        1.41431310        4.92775440        6.63375390
C        9.32111680        5.83087580        9.34568650
C       10.24260100        6.71515460       10.15358600
C        9.31364710        7.61024340        0.35256812
C       10.19277000        8.43699090        1.29962840
C        0.52236313        5.87712330        0.42142661
C        1.30930000        6.58731000        1.28658700
C        0.42856211        7.55588200        9.34517390
C        1.31210120        8.42925110       10.20513900
C        9.26775450        5.76775970        2.28669060
C       10.21370000        6.68437110        3.05052830
C        9.32466270        7.59216590        3.88466200
C       10.25625800        8.44496540        4.91073010
C        0.41660290        5.76390860        3.95989650
C        1.31585540        6.68995750        4.76109590
C        0.44618967        7.51820640        2.17263060
C        1.32394660        8.42739700        3.08318550
C        9.26421090        5.78593600        5.81571040
C       10.14405400        6.65058070        6.66388730
C        9.26016240        7.56698650        7.55351930
C       10.18728000        8.39737080        8.47531300
C        0.44056501        5.82985800        7.53550440
C        1.38262860        6.72604820        8.47430500
C        0.43403125        7.52059190        5.69449580
C        1.35888020        8.43044920        6.64553160
C        2.16348120        9.22970770        9.26214980
C        3.09900290       10.17218200       10.15804600
C        2.28653000        0.42161918        0.42972406
C        3.16506980        1.30248370        1.28176290
C        4.02663480        9.27727780        0.44756899
C        4.92350780       10.15567800        1.32368340
C        3.95980140        0.36295577        9.35723380
C        4.84573310        1.20622020       10.25674900
C        2.21829770        9.31810350        2.21107430
C        3.11110000       10.23229500        3.15677310
C        2.21655070        0.45309565        3.98090990
C        3.07915160        1.32706530        4.88691480
C        3.99258000        9.28899330        3.93579760
C        4.85172570       10.25621500        4.88528620
C        4.04667080        0.45963861        2.17166020
C        4.81007510        1.33105530        3.14474580
C        2.26290880        9.26760710        5.83321290
C        3.10862170       10.17094600        6.74438260
C        2.19388260        0.48330629        7.60219790
C        3.10175240        1.28857660        8.40925550
C        4.02887870        9.29758260        7.55706070
C        4.89377160       10.24277100        8.42400090
C        3.97563880        0.49156706        5.77205630
C        4.84573580        1.36430600        6.64872690
C        2.19857870        2.21775370        9.32585680
C        3.05122260        3.09494800       10.19852000
C        2.21953820        3.94326030        0.42843574
C        3.12584380        4.84043770        1.34521300
C        3.94807270        2.11449120        0.40407711
C        4.89195140        3.09806560        1.37597850
C        4.01500230        4.01125670        9.31971190
C        4.86328250        4.92768240       10.19550600
C        2.20130700        2.22113030        2.21839520
C        3.10339190        3.07974220        3.09441930
C        2.21869290        3.93561040        4.02281190
C        3.12327590        4.92614420        4.78346200
C        3.98529250        2.15748460        3.96448060
C        4.84809470        3.03420180        4.78807740
C        4.01131100        3.95029830        2.24852880
C        4.89092110        4.77144810        3.17535740
C        2.11720200        2.30401130        5.72332030
C        3.08526990        3.24800650        6.63956240
C        2.19720530        4.06744830        7.50035980
C        3.06453250        4.87352100        8.42556420
C        3.97197100        2.23644000        7.54893800
C        4.87040240        3.08550200        8.47275500
C        4.02599750        4.00515600        5.73278910
C        4.89337160        4.97918270        6.65096310
C        2.22651220        5.79035260        9.32694170
C        3.14812770        6.61310100       10.22169800
C        2.28910320        7.59974870        0.35217048
C        3.15060350        8.44851430        1.33352130
C        3.97659990        5.72967740        0.44212472
C        4.90354720        6.59229210        1.31728980
C        4.04396070        7.54419810        9.30070480
C        4.97277870        8.40115350       10.18886200
C        2.22531110        5.76107620        2.21677840
C        3.12125220        6.67597460        3.06449110
C        2.21252040        7.55390230        4.03989120
C        3.14138870        8.46533160        4.88253360
C        4.09451210        5.75948610        3.94709100
C        4.93823020        6.60493290        4.94905710
C        4.03100140        7.52409320        2.19777660
C        4.86353980        8.41119830        3.03656190
C        2.22428640        5.82376200        5.77226520
C        3.11371360        6.68870880        6.64624620
C        2.23879880        7.53642030        7.51445430
C        3.16141180        8.33524740        8.40860390
C        3.97983720        5.84326310        7.56823710
C        4.88647110        6.63348890        8.41221960
C        4.08362650        7.56855830        5.76566470
C        4.94200070        8.43914800        6.61567100
C        5.77558820        9.32329380        9.35473600
C        6.71856880       10.18505600       10.18961600
C        5.82982480        0.44315904        0.37717036
C        6.64450500        1.29786870        1.26272220
C        7.61183650        9.30214890        0.47565574
C        8.45962880       10.19196200        1.31734210
C        7.51892970        0.40922336        9.26932730
C        8.46505820        1.29541980       10.17742600
C        5.77656950        9.27711790        2.13804840
C        6.63094240       10.22161200        3.08296610
C        5.80503390        0.52630998        3.92518700
C        6.66833810        1.28277860        4.86075940
C        7.53338910        9.33772190        3.96864790
C        8.39627450       10.21338800        4.89613900
C        7.51325820        0.47029302        2.29649190
C        8.42069820        1.37298750        3.08048140
C        5.77733350        9.34349670        5.76164420
C        6.64097470       10.23821900        6.66819490
C        5.74430260        0.46242399        7.65896730
C        6.67221160        1.33468260        8.47265390
C        7.54370510        9.26975180        7.53016520
C        8.44981200       10.23240800        8.34837880
C        7.59739970        0.41791652        5.78602910
C        8.45862780        1.31068580        6.67226060
C        5.80059290        2.19120000        9.34366210
C        6.69081040        3.10668070       10.19435500
C        5.77068690        4.02252930        0.49482388
C        6.70495930        4.79932960        1.36665270
C        7.49833800        2.19177750        0.52273495
C        8.44637010        3.07259940        1.38986860
C        7.53180810        4.02574990        9.29106610
C        8.45381730        4.86163230       10.28582400
C        5.76160690        2.16043600        2.28001780
C        6.66056970        3.11538050        3.06049590
C        7.53652760        2.25584120        4.04878530
C        8.44641800        3.10582720        4.88771090
C        7.52468780        4.02342540        2.26960450
C        8.34353000        4.87487960        3.16543750
C        5.76675740        2.14487320        5.69261620
C        6.70526710        3.02131290        6.61910360
C        5.74535180        3.94671690        7.50269020
C        6.63129660        4.86195090        8.43632890
C        7.51175890        2.20432470        7.52952710
C        8.47521950        3.21173130        8.44551960
C        7.68408080        3.92631960        5.86195620
C        8.47146030        4.91826520        6.73206890
C        5.70300530        5.70897840        9.27383520
C        6.68176080        6.65493250       10.18391900
C        5.75894020        7.46607430        0.44908077
C        6.66467810        8.38707490        1.32418770
C        7.52521150        5.74394860        0.44817401
C        8.46342100        6.68926250        1.27126450
C        7.53940360        7.55443440        9.37182920
C        8.44104970        8.48928890       10.15178400
C        5.78048810        5.69013000        2.27363760
C        6.63640600        6.60839890        3.09831430
C        5.78973760        7.46912900        3.98288040
C        6.65966960        8.46504020        4.88115770
C        7.63250730        5.87759910        3.95849960
C        8.39779510        6.73137250        4.92651360
C        7.49073130        7.54627600        2.21797220
C        8.37225610        8.39257670        3.04137390
C        5.66858720        5.82510870        5.85193690
C        6.68219890        6.60602610        6.72263570
C        5.80027170        7.59026880        7.55611670
C        6.68319010        8.41013670        8.49575970
C        7.46863820        5.82120700        7.60027220
C        8.44704990        6.68030090        8.42709310
C        7.51326780        7.55629850        5.75650750
C        8.48106520        8.44459690        6.65472130
N        5.61557350        3.87184950        3.89997890
