&CONTROL
calculation = 'scf'
restart_mode = 'from_scratch'
verbosity = 'high'
wf_collect = .true.
pseudo_dir='/home/arpank/pseudopotentials/'
tprnfor = .true.
/
&SYSTEM
ibrav = 0
ecutwfc = 60
tot_charge = -1
nspin = 2
tot_magnetization = 2.0
nbnd = 480
nat = 215
ntyp = 2
input_dft = 'PBE0'
exx_fraction = 0.18
ecutfock = 120
/
&ELECTRONS
conv_thr = 1D-8
diago_full_acc=.true.
mixing_beta = 0.3
/
&IONS
ion_dynamics='bfgs'
ion_positions='default'
/
K_POINTS gamma
ATOMIC_SPECIES
C  12.01099968  C_ONCV_PBE-1.0.upf
N  14.00699997  N_ONCV_PBE-1.0.upf
CELL_PARAMETERS angstrom
    10.65000000      0.00000000      0.00000000
     0.00000000     10.65000000      0.00000000
     0.00000000      0.00000000     10.65000000
ATOMIC_POSITIONS angstrom
C        9.34574390        9.30011270        9.23834880
C       10.14461600       10.22563900       10.21445900
C        9.27789260        0.42372415        0.48013290
C       10.21015900        1.30925770        1.40158120
C        0.41811259        9.31191450        0.41954059
C        1.34457550       10.21537900        1.37826860
C        0.43159269        0.39940848        9.38878520
C        1.28283080        1.31721780       10.28540200
C        9.37166180        9.24341170        2.19575570
C       10.23650200       10.18219700        3.11690490
C        9.28929690        0.38618866        3.95890530
C       10.26730700        1.35963990        4.84630290
C        0.49641680        9.28976600        3.98481630
C        1.41150110       10.25186700        4.89643590
C        0.40804380        0.48050166        2.31365580
C        1.29883140        1.38678740        3.17159920
C        9.36824150        9.30391940        5.78514780
C       10.20973400       10.30499900        6.66077950
C        9.33883030        0.40272806        7.49980460
C       10.16758900        1.33406330        8.44689060
C        0.39292168        9.42447940        7.55646100
C        1.35292560       10.15824000        8.43916130
C        0.49592703        0.47208390        5.71079620
C        1.36267040        1.30301620        6.65081960
C        9.34043890        2.22012360        9.36375130
C       10.19274900        3.14426640       10.20963500
C        9.28728050        4.02342700        0.48054970
C       10.27269700        4.90428430        1.32651540
C        0.44695134        2.24786960        0.53034387
C        1.24950300        3.08672320        1.40662150
C        0.46197286        3.98947880        9.33770300
C        1.35025660        4.91346490       10.27432200
C        9.36389710        2.22430520        2.20014220
C       10.16087900        3.08960710        3.16467050
C        9.30432920        3.99215560        3.99757630
C       10.22060500        4.78257890        4.87039630
C        0.37669337        2.18733090        4.00852850
C        1.38491120        3.06579200        4.84565560
C        0.44410214        4.04205630        2.26684550
C        1.40700510        4.84832770        3.11224320
C        9.39504050        2.22831320        5.76505350
C       10.16973100        3.11790750        6.74193760
C        9.28117860        3.92829300        7.58322490
C       10.25113900        4.84345500        8.40640840
C        0.48796166        2.22194720        7.58015350
C        1.45674350        3.18213140        8.42311400
C        0.39078241        4.00367930        5.82631650
C        1.33132770        4.93407070        6.62151140
C        9.31992910        5.73844840        9.32906010
C       10.17011600        6.62029900       10.24697200
C        9.26619990        7.50642960        0.40700744
C       10.16217000        8.40491760        1.26140350
C        0.38410876        5.76081740        0.54056380
C        1.37684260        6.63890660        1.27986540
C        0.41585843        7.49949620        9.28074950
C        1.31557820        8.43854510       10.24643300
C        9.32481940        5.78385540        2.20646330
C       10.18950300        6.66060160        3.06274830
C        9.34427880        7.53710160        4.00574520
C       10.25792300        8.43616460        4.87945600
C        0.43276039        5.72166850        3.98292350
C        1.36404260        6.63215080        4.84475610
C        0.39656839        7.46809070        2.17720010
C        1.34520450        8.35331850        3.07414460
C        9.27815650        5.74094120        5.77982650
C       10.20959000        6.61856250        6.62253510
C        9.39967070        7.48799460        7.48348750
C       10.25042600        8.39095340        8.42089590
C        0.43455487        5.78667180        7.51343360
C        1.34429780        6.63074030        8.45428030
C        0.41728342        7.54038970        5.71433330
C        1.26691480        8.46637020        6.60840330
C        2.18835590        9.29326760        9.29268850
C        3.17232650       10.14849300       10.22846200
C        2.26432720        0.43804878        0.37026620
C        3.06713560        1.39134850        1.26247210
C        3.98804590        9.32430040        0.51413146
C        4.84652270       10.21429200        1.32101270
C        3.97202810        0.44487718        9.31460430
C        4.88934930        1.28695840       10.20639700
C        2.21394860        9.29932080        2.19535790
C        3.06844730       10.21726600        3.14516270
C        2.27092230        0.45405591        4.01595940
C        3.09918340        1.34319850        4.83350320
C        4.00102150        9.31603270        3.97017230
C        4.89396370       10.18878400        4.83160050
C        4.04091490        0.50739708        2.16266960
C        4.90059960        1.31225510        3.11140080
C        2.19438140        9.29137220        5.75920030
C        3.13557390       10.21580200        6.63252550
C        2.28370260        0.43839793        7.56380650
C        3.07578050        1.34404190        8.41018760
C        3.90267980        9.39572790        7.49259690
C        4.88724350       10.19868600        8.41388750
C        3.99446010        0.44838871        5.65581630
C        4.82133630        1.28381810        6.66691860
C        2.25607760        2.17437180        9.29696870
C        3.11112730        3.09076510       10.24304600
C        2.18294870        4.00815790        0.49096410
C        3.18534090        4.83534800        1.29282380
C        3.95267600        2.27659410        0.42817073
C        4.92251340        3.11252480        1.30261980
C        4.01847770        4.02094500        9.33097570
C        4.82817260        4.89783660       10.25379600
C        2.25562690        2.17457050        2.21917990
C        3.15050300        3.04320020        3.07191620
C        2.26229260        3.93025280        4.01717180
C        3.12212030        4.87794770        4.89285380
C        3.98972420        2.12183810        4.01202120
C        4.81263280        3.09525750        4.89741050
C        4.02837430        3.97039860        2.21997190
C        4.90094970        4.85689960        3.10380880
C        2.20570180        2.19819410        5.67642610
C        3.09221430        3.04467200        6.62856470
C        2.21561900        3.97771550        7.45035430
C        3.10724900        4.88562700        8.35195500
C        4.01775400        2.20130750        7.52770890
C        4.88083870        3.06677720        8.37828970
C        3.98615560        3.98374430        5.72754260
C        4.88080780        4.94288090        6.57811850
C        2.30640830        5.79190910        9.25192810
C        3.13770100        6.73156930       10.23371700
C        2.27302590        7.54252960        0.45473001
C        3.06857910        8.41998420        1.33520710
C        3.97037680        5.80900570        0.42685474
C        4.86685600        6.71436240        1.33401700
C        4.01125030        7.58012090        9.29687560
C        4.89135830        8.46218810       10.19939300
C        2.23686650        5.74816540        2.20857290
C        3.11193080        6.57429520        3.15997580
C        2.24680180        7.51415740        3.96350320
C        3.05675970        8.33560830        4.82315530
C        4.06415490        5.72418810        3.96723670
C        4.91901990        6.64587070        4.95799460
C        4.00357980        7.52799180        2.28373480
C        4.86199770        8.37490360        3.06622580
C        2.17687050        5.81617080        5.68771690
C        3.11682470        6.72055990        6.59452510
C        2.19565940        7.51185790        7.54730270
C        3.03886380        8.48617250        8.46627740
C        4.05951260        5.78846810        7.53651840
C        4.92038080        6.68419110        8.42274700
C        3.95861950        7.55823500        5.73760640
C        4.83538770        8.38846180        6.62199520
C        5.74369240        9.33578500        9.26977530
C        6.66401430       10.22007900       10.26782000
C        5.71575200        0.50978445        0.42863712
C        6.62934960        1.29743810        1.36276780
C        7.51095760        9.37243260        0.48867610
C        8.41170860       10.17075900        1.37183020
C        7.56970970        0.45457369        9.31601780
C        8.41473520        1.39584340       10.18952800
C        5.78157160        9.34962120        2.28913150
C        6.63803690       10.24773400        3.15712080
C        5.76836810        0.46697839        3.97238900
C        6.69881330        1.31712200        4.84885630
C        7.47286940        9.31838330        3.97724330
C        8.45444250       10.21262900        4.80919580
C        7.52000960        0.42315981        2.22580250
C        8.47817540        1.35626460        3.11737660
C        5.75356580        9.30925180        5.83818030
C        6.52644850       10.17967100        6.65563200
C        5.78114600        0.45953051        7.54535980
C        6.68600340        1.33969930        8.44530100
C        7.51149390        9.33879340        7.52905510
C        8.45414600       10.20706000        8.38207480
C        7.56437730        0.38854254        5.81897160
C        8.41938850        1.31791120        6.69569630
C        5.76276420        2.18826600        9.40420200
C        6.70190940        3.11879100       10.20041300
C        5.78169200        4.05882630        0.47135283
C        6.69274320        4.92487120        1.42309910
C        7.55717340        2.26551260        0.46979196
C        8.46402050        3.08856500        1.35131400
C        7.51664860        3.92895520        9.34802510
C        8.42732160        4.96347090       10.21183900
C        5.76532930        2.25291680        2.24926700
C        6.65524740        3.08947740        3.14049070
C        7.58039830        2.22594060        4.04231040
C        8.44941810        3.17545240        4.88112570
C        7.54979130        4.07178560        2.27103430
C        8.34847760        5.01767030        3.17739760
C        5.78011790        2.22350970        5.75789730
C        6.70160880        3.12391000        6.66227880
C        5.77925600        3.94288470        7.57458140
C        6.64775120        4.85239120        8.40524500
C        7.60772010        2.27411380        7.59940910
C        8.38326150        3.17497310        8.43081480
C        7.57761430        3.98623770        5.83972460
C        8.44291420        4.87072990        6.67761260
C        5.67968180        5.81310960        9.30871410
C        6.69393360        6.66139190       10.16518600
C        5.72863230        7.52816470        0.39538923
C        6.59929550        8.37645830        1.28358920
C        7.43825670        5.77722530        0.41315198
C        8.39750630        6.72760130        1.34436440
C        7.55244830        7.62093140        9.34828910
C        8.41192700        8.49524440       10.22777400
C        5.75231340        5.77453760        2.26250190
C        6.57551770        6.64471610        3.17846830
C        5.73953650        7.52556610        3.99723060
C        6.66174710        8.45612030        4.94662610
C        7.56969120        5.85078240        3.91540100
C        8.41415770        6.67667430        4.87995850
C        7.55320920        7.57621540        2.17341350
C        8.41346390        8.33437150        3.12492620
C        5.80501970        5.80291770        5.81944190
C        6.62971480        6.64399230        6.62539120
C        5.71900600        7.58347410        7.48960930
C        6.64527660        8.52625970        8.34794260
C        7.50805960        5.73675210        7.57447640
C        8.43414000        6.67754050        8.42503830
C        7.55211800        7.50923400        5.73076620
C        8.48634490        8.40536790        6.62231590
N        5.74374450        3.88246600        3.96810680
