&CONTROL
calculation = 'scf'
restart_mode = 'from_scratch'
verbosity = 'high'
wf_collect = .true.
pseudo_dir='/home/arpank/pseudopotentials/'
tprnfor = .true.
/
&SYSTEM
ibrav = 0
ecutwfc = 60
tot_charge = -1
nspin = 2
tot_magnetization = 2.0
nbnd = 480
nat = 215
ntyp = 2
input_dft = 'PBE0'
exx_fraction = 0.18
ecutfock = 120
/
&ELECTRONS
conv_thr = 1D-8
diago_full_acc=.true.
mixing_beta = 0.3
/
&IONS
ion_dynamics='bfgs'
ion_positions='default'
/
K_POINTS gamma
ATOMIC_SPECIES
C  12.01099968  C_ONCV_PBE-1.0.upf
N  14.00699997  N_ONCV_PBE-1.0.upf
CELL_PARAMETERS angstrom
    10.65000000      0.00000000      0.00000000
     0.00000000     10.65000000      0.00000000
     0.00000000      0.00000000     10.65000000
ATOMIC_POSITIONS angstrom
C        9.36578320        9.34974690        9.32626640
C       10.27915600       10.15362200       10.15846600
C        9.33154960        0.44024898        0.49413609
C       10.17648200        1.34928930        1.31826800
C        0.48415218        9.32790850        0.48261724
C        1.36109010       10.22333700        1.33987650
C        0.46237653        0.47423252        9.29847180
C        1.35022600        1.28659030       10.14180600
C        9.29070560        9.29621000        2.14947520
C       10.24977200       10.23791100        3.05504200
C        9.34760010        0.43042332        3.94544770
C       10.19156500        1.35574540        4.89441890
C        0.43626533        9.33356910        3.95338740
C        1.31739400       10.24976700        4.80689930
C        0.41418266        0.54135111        2.18540760
C        1.33427890        1.42205180        3.08859750
C        9.31337940        9.29132680        5.79030030
C       10.18582500       10.19271500        6.69500210
C        9.42374950        0.51043513        7.53866600
C       10.24728300        1.34988360        8.40569480
C        0.46741877        9.27539620        7.57857580
C        1.33705290       10.22920700        8.44346820
C        0.44497523        0.50780675        5.81693290
C        1.33565500        1.28176930        6.67599580
C        9.31662540        2.24722220        9.33070650
C       10.25426900        3.11409940       10.25483800
C        9.32698540        3.98377620        0.44736423
C       10.20842200        4.84202750        1.31000730
C        0.49500673        2.23531690        0.47713948
C        1.34598380        3.10453480        1.33683600
C        0.43044627        4.02451550        9.32089810
C        1.31059710        4.87728560       10.16016000
C        9.30451410        2.23279680        2.22710000
C       10.16322100        3.11195900        3.11537820
C        9.28035390        3.97094920        4.01038620
C       10.26333100        4.83757990        4.87232860
C        0.49471838        2.23487830        4.00178210
C        1.33771430        3.11802230        4.86704870
C        0.45872714        4.00444250        2.16004320
C        1.36139670        4.87044990        3.08355520
C        9.38149920        2.18636350        5.80319130
C       10.18762800        3.13481960        6.66020660
C        9.35991620        4.07345800        7.58775060
C       10.27611000        4.87312520        8.51475490
C        0.48664311        2.18826330        7.54319510
C        1.36537010        3.17345570        8.40754220
C        0.43512742        3.97810950        5.78118940
C        1.27920910        4.87376780        6.63605730
C        9.33549710        5.74082540        9.29426050
C       10.17177000        6.70079270       10.20667600
C        9.28579960        7.59670510        0.48540760
C       10.20779300        8.38264140        1.31157860
C        0.42294498        5.81337530        0.40310189
C        1.26161910        6.65266490        1.32552240
C        0.44065661        7.52679940        9.36011020
C        1.36110260        8.38522530       10.18453400
C        9.30453680        5.72180590        2.20367150
C       10.20388300        6.68086840        3.11562280
C        9.36177140        7.47910040        4.08571340
C       10.15611700        8.42150150        4.85301830
C        0.46794856        5.77876270        4.02670180
C        1.43447960        6.65811820        4.84312960
C        0.35632835        7.56280000        2.21648620
C        1.32132640        8.41600800        3.06563130
C        9.31072980        5.74854920        5.78565740
C       10.23095100        6.66162190        6.70000970
C        9.33681930        7.51147480        7.54486630
C       10.21921700        8.39139100        8.43782430
C        0.46863927        5.80213620        7.58658360
C        1.33455530        6.67363590        8.43855080
C        0.46039173        7.56072970        5.75223380
C        1.37127980        8.42168270        6.68762680
C        2.27338770        9.26205230        9.32137800
C        3.20535810       10.16975000       10.16462900
C        2.21736270        0.42659599        0.46379052
C        3.05861640        1.32335100        1.27754600
C        3.99474160        9.23585720        0.50383324
C        4.81883810       10.17817900        1.41686930
C        3.95975770        0.37970812        9.26415260
C        4.92736860        1.30633640       10.24658400
C        2.23231060        9.32448210        2.14866990
C        3.06475120       10.23142900        3.09308070
C        2.15353210        0.44308136        3.95289980
C        3.03103540        1.39546030        4.88248740
C        4.00806610        9.25313480        3.91141770
C        4.89119580       10.19205600        4.81493710
C        3.95490790        0.44544533        2.24323680
C        4.83692800        1.32164630        3.07282750
C        2.20755170        9.38587450        5.75832080
C        3.10687270       10.25353400        6.64627220
C        2.20645440        0.41780752        7.58036700
C        3.14373430        1.34090650        8.39351080
C        4.04280190        9.29434170        7.63810120
C        4.92165740       10.24050100        8.46457390
C        4.03067240        0.43014980        5.73374320
C        4.85660100        1.31769450        6.59858550
C        2.23260970        2.23141590        9.32599020
C        3.12480590        3.10282450       10.17031900
C        2.23742600        4.07221040        0.42367842
C        3.11890070        4.92253050        1.24134650
C        3.93840330        2.24048950        0.43927571
C        4.80508790        3.09509480        1.41316850
C        3.98275160        3.95790830        9.27806480
C        4.91802320        4.89310220       10.24184000
C        2.24558750        2.29140380        2.24397430
C        3.09889050        3.11303390        3.04988790
C        2.21364350        3.98623900        3.93081730
C        3.12423130        4.89346610        4.88164250
C        3.92867430        2.24522570        4.02218360
C        4.80209430        3.02352070        4.76558710
C        3.85220030        4.07803660        2.28105620
C        4.88060650        4.83417690        3.06458660
C        2.23634580        2.20639280        5.75546930
C        3.10423790        2.97705210        6.64080100
C        2.19530590        4.07649510        7.45647350
C        3.08663440        4.83900690        8.32373160
C        4.01856360        2.14961930        7.43597860
C        4.88328220        3.04372080        8.42320840
C        4.01538370        4.05143450        5.73381610
C        4.87175600        4.86320010        6.62412260
C        2.21682060        5.71714990        9.27196040
C        3.20206040        6.63750460       10.20742400
C        2.20844240        7.54745810        0.46199306
C        3.13266560        8.44411860        1.31819550
C        4.05191120        5.79569050        0.43727451
C        4.90432540        6.67590860        1.37915160
C        4.01854370        7.46857450        9.36657170
C        4.87147170        8.39302250       10.24489700
C        2.21238570        5.76370750        2.20598000
C        3.08011630        6.66040570        3.13561930
C        2.20646510        7.56272960        3.98789770
C        3.16907090        8.46781140        4.88230440
C        3.90182730        5.73753550        3.98546470
C        4.99285530        6.49364050        4.85781110
C        3.99217040        7.56008070        2.20380290
C        4.84876670        8.44638300        2.99399530
C        2.24774110        5.81962300        5.77942090
C        3.11925990        6.65077070        6.64945440
C        2.24005790        7.56513220        7.50265200
C        3.17310290        8.38700860        8.33118730
C        3.96184090        5.76043740        7.46794960
C        4.86498170        6.57598660        8.41616930
C        3.96780570        7.53162210        5.78021010
C        4.88082080        8.46093880        6.66244300
C        5.80250250        9.29307410        9.41080050
C        6.64244020       10.24610100       10.22949200
C        5.76040700        0.45317544        0.49564868
C        6.67327020        1.37899440        1.26614470
C        7.49076990        9.38075530        0.47927243
C        8.45176160       10.23368200        1.36442890
C        7.57558550        0.45683852        9.28122580
C        8.48729060        1.36274210       10.18663300
C        5.78428750        9.36257070        2.21230540
C        6.74877610       10.14853000        3.16100000
C        5.79023260        0.45512286        3.98472210
C        6.63571560        1.37113790        4.92131450
C        7.62320350        9.26599910        4.02954790
C        8.45947020       10.22324000        4.90907680
C        7.55770450        0.44730801        2.27274780
C        8.34194720        1.33945740        3.12792220
C        5.84207110        9.35186960        5.80282650
C        6.59403510       10.21028500        6.71359790
C        5.76208890        0.48867634        7.59590880
C        6.62865800        1.37185000        8.44112500
C        7.57521700        9.32848940        7.58977260
C        8.42131830       10.18669100        8.46165910
C        7.47845020        0.45525002        5.84583990
C        8.46137400        1.35790220        6.65202580
C        5.76618050        2.17308530        9.33829090
C        6.62472050        3.19457490       10.15332100
C        5.73475750        3.97433780        0.48092633
C        6.63568420        4.89801900        1.39087190
C        7.53294310        2.19701570        0.39938763
C        8.42606560        3.14605890        1.30480090
C        7.50797510        4.00510370        9.32847850
C        8.42601390        4.89827770       10.12537700
C        5.76231130        2.17014960        2.16989190
C        6.58575670        3.12272450        3.14862370
C        7.44364570        2.25305760        3.99629280
C        8.43858720        3.13374600        4.94010890
C        7.54027450        3.92128030        2.23045090
C        8.35865330        4.91769140        3.15037700
C        5.79761040        2.15921990        5.68918750
C        6.67178810        3.13804040        6.58888630
C        5.77273560        3.96505220        7.46629340
C        6.62863090        4.91403500        8.43528220
C        7.59109340        2.20627410        7.56386950
C        8.41294540        3.14766410        8.45274860
C        7.57550480        3.96734710        5.82391980
C        8.43170940        4.87876680        6.64477460
C        5.71908800        5.78197600        9.35914690
C        6.62125720        6.57993290       10.25759600
C        5.75091640        7.52302630        0.44896747
C        6.71957300        8.47672510        1.33388970
C        7.56717310        5.81262800        0.53810733
C        8.42193530        6.70639170        1.34983510
C        7.56769090        7.54463910        9.31359800
C        8.41163150        8.48290040       10.20281700
C        5.79392100        5.70882020        2.29437480
C        6.59419780        6.59200310        3.20587890
C        5.75020620        7.53483520        3.98901830
C        6.57843080        8.39343670        4.86490980
C        7.48039120        5.79172340        3.96502190
C        8.33546660        6.57673080        4.89600900
C        7.58257090        7.58042140        2.27976230
C        8.49765790        8.40030210        3.20936510
C        5.76513940        5.85783050        5.85518210
C        6.65886760        6.67761550        6.68691870
C        5.77138230        7.53493400        7.52465690
C        6.60632440        8.36934890        8.49277400
C        7.54620400        5.77440310        7.50371000
C        8.36752230        6.65304150        8.44124060
C        7.49606320        7.50846180        5.81039210
C        8.38258630        8.39293180        6.58718890
N        5.67949470        3.93556350        3.94764620
