&CONTROL
calculation = 'scf'
restart_mode = 'from_scratch'
verbosity = 'high'
wf_collect = .true.
pseudo_dir='/home/arpank/pseudopotentials/'
tprnfor = .true.
/
&SYSTEM
ibrav = 0
ecutwfc = 60
tot_charge = -1
nspin = 2
tot_magnetization = 2.0
nbnd = 480
nat = 215
ntyp = 2
input_dft = 'PBE0'
exx_fraction = 0.18
ecutfock = 120
/
&ELECTRONS
conv_thr = 1D-8
diago_full_acc=.true.
mixing_beta = 0.3
/
&IONS
ion_dynamics='bfgs'
ion_positions='default'
/
K_POINTS gamma
ATOMIC_SPECIES
C  12.01099968  C_ONCV_PBE-1.0.upf
N  14.00699997  N_ONCV_PBE-1.0.upf
CELL_PARAMETERS angstrom
    10.65000000      0.00000000      0.00000000
     0.00000000     10.65000000      0.00000000
     0.00000000      0.00000000     10.65000000
ATOMIC_POSITIONS angstrom
C        9.34980700        9.25255980        9.27026080
C       10.25683600       10.19671100       10.23814300
C        9.30207060        0.39948129        0.44586560
C       10.17969400        1.36156500        1.41671810
C        0.50873615        9.25335910        0.41616629
C        1.37795070       10.24605500        1.34962970
C        0.47676240        0.40219723        9.36802070
C        1.31534880        1.34630580       10.27108000
C        9.28885490        9.32867440        2.24325380
C       10.18777100       10.16696400        3.14913600
C        9.33831940        0.48212824        3.99818720
C       10.24420600        1.37652510        4.86191230
C        0.41593021        9.29870390        4.10834640
C        1.31841950       10.13344300        4.89847570
C        0.45106181        0.39283281        2.21379130
C        1.32323660        1.26597600        3.13481330
C        9.28880430        9.28999250        5.81290630
C       10.21892700       10.15803500        6.63138930
C        9.32602020        0.37083357        7.56367960
C       10.18822800        1.36843700        8.44949040
C        0.44964854        9.28360980        7.57288320
C        1.36442710       10.22592700        8.41181820
C        0.48761704        0.43860834        5.77883020
C        1.30773290        1.36476660        6.64306230
C        9.29314010        2.17127190        9.31991220
C       10.16249200        3.02387430       10.15250400
C        9.30688500        3.99441910        0.39380011
C       10.25535800        4.87499490        1.34842180
C        0.39711894        2.22203290        0.43602426
C        1.30625770        3.06879340        1.25228710
C        0.42537824        4.00031780        9.28425140
C        1.36147680        4.87964690       10.20795400
C        9.26022590        2.22332900        2.13499610
C       10.17102200        3.09668400        3.11247170
C        9.28604340        3.96408250        3.93849650
C       10.17270400        4.93693780        4.78436050
C        0.45574295        2.22634340        4.03497280
C        1.34980740        3.22517750        4.83555860
C        0.49676552        3.95193280        2.19793010
C        1.33923160        4.81115280        3.05837660
C        9.29953510        2.16272750        5.81789630
C       10.11093000        3.14650870        6.67335460
C        9.29218740        4.13344180        7.59760240
C       10.20288600        4.89250110        8.42292250
C        0.41794255        2.22299940        7.52895740
C        1.30567470        3.19547420        8.40866080
C        0.39333848        3.93891460        5.76701730
C        1.34158330        4.83965840        6.65045050
C        9.35094110        5.75582210        9.28279030
C       10.28316100        6.64884520       10.18432800
C        9.33542540        7.54910450        0.46166946
C       10.19687400        8.42031330        1.41643380
C        0.44118063        5.75379280        0.47297250
C        1.37273500        6.66291200        1.31800920
C        0.46441608        7.47355220        9.24311460
C        1.41263880        8.41237870       10.17123600
C        9.35848230        5.77366380        2.21663000
C       10.22268900        6.60831660        3.05855130
C        9.30891750        7.52949130        4.02631530
C       10.16828200        8.37071730        4.95361000
C        0.45659226        5.73526850        3.93913600
C        1.34178540        6.62176760        4.95641860
C        0.46782425        7.55519170        2.23169550
C        1.37328600        8.43500400        3.23942820
C        9.26331850        5.73493990        5.79563400
C       10.21272100        6.56578670        6.68962240
C        9.34047090        7.53087100        7.53053080
C       10.28994400        8.39006120        8.39038740
C        0.40475350        5.76704150        7.56236540
C        1.34102610        6.69814830        8.42893510
C        0.48304813        7.53378520        5.76563130
C        1.35909330        8.38800220        6.64492010
C        2.31079150        9.33157620        9.30805560
C        3.11505070       10.22022100       10.27087300
C        2.24147550        0.47332594        0.51153648
C        3.09803810        1.29947570        1.30912450
C        3.97710730        9.34918980        0.45761584
C        4.88696980       10.18916200        1.41673410
C        3.98078410        0.45050950        9.33242020
C        4.94292980        1.36797030       10.24572700
C        2.22828810        9.34878110        2.25716580
C        3.11946820       10.27066600        3.06219590
C        2.19138640        0.49060975        4.03147650
C        3.08458960        1.35390610        4.91699360
C        4.01253940        9.27065950        3.91269780
C        4.77349290       10.25475700        4.81502180
C        4.05306610        0.44221650        2.22206860
C        4.88130070        1.34969510        3.09322360
C        2.19303480        9.27821670        5.79331580
C        3.17209840       10.21235600        6.62795360
C        2.18507150        0.35840912        7.56166850
C        3.12913450        1.39552980        8.39575220
C        4.04776580        9.34078060        7.54271300
C        4.88213250       10.28041900        8.47668900
C        3.98631660        0.45102635        5.70452650
C        4.83507230        1.40488600        6.63379920
C        2.21819020        2.30186550        9.27669300
C        3.12057310        3.08683130       10.18774300
C        2.27614720        4.01657460        0.42649270
C        3.16920520        4.95021990        1.37518700
C        3.97729080        2.21465420        0.40654182
C        4.89823890        3.05021120        1.26397430
C        3.99957250        4.06330130        9.37194460
C        4.88177940        4.94015370       10.21961600
C        2.20335060        2.19924810        2.21419530
C        3.09695130        3.02998320        3.08723070
C        2.23319920        4.03454950        3.98880430
C        3.16143300        4.86030510        4.82034480
C        3.98290330        2.28164500        3.99245690
C        4.91850630        3.13944500        4.80178570
C        3.96309150        4.05300180        2.19569950
C        4.92537420        4.82744420        3.05874230
C        2.14561900        2.25596700        5.75978480
C        3.11377680        3.08981630        6.59285770
C        2.17955210        4.02864040        7.53286630
C        3.12173620        4.91819270        8.39196560
C        4.04477080        2.27453630        7.49832750
C        4.91732390        3.17524870        8.43125160
C        4.08334320        3.98031920        5.71304860
C        4.92688210        4.86851140        6.75734910
C        2.21259770        5.76149960        9.30223760
C        3.12287260        6.60341060       10.22318800
C        2.18939670        7.57945050        0.37788046
C        3.04168810        8.42623390        1.33804930
C        4.02854820        5.72579980        0.46474835
C        4.86905700        6.63456880        1.34498550
C        4.03078270        7.54809890        9.28118560
C        4.93485000        8.46920120       10.13593700
C        2.24738930        5.75703260        2.18788710
C        3.08580360        6.71918720        3.12424870
C        2.21443380        7.51824490        4.01392880
C        3.00767990        8.45086990        4.91117200
C        4.07403420        5.84868360        3.99579880
C        4.87445570        6.64697550        4.90666430
C        3.87129590        7.61237190        2.25426140
C        4.83468380        8.38598460        3.11122870
C        2.23230050        5.74845070        5.77352990
C        3.07996920        6.65725790        6.71581570
C        2.26162470        7.61391960        7.62505860
C        3.07959870        8.45808670        8.42947460
C        3.99909620        5.78636600        7.55256260
C        4.92195170        6.61395450        8.40502630
C        3.92344420        7.59057670        5.78297880
C        4.81254430        8.44446040        6.65964870
C        5.77940900        9.35225460        9.27383840
C        6.70581590       10.25084300       10.17814400
C        5.73307710        0.40215073        0.41306721
C        6.59001640        1.35071480        1.40398110
C        7.62724290        9.24877360        0.38830391
C        8.44050610       10.19550200        1.33256710
C        7.50671900        0.44205965        9.27486130
C        8.44881220        1.35158480       10.14874500
C        5.76014470        9.28235360        2.25269940
C        6.63626310       10.19091600        3.11707630
C        5.77786810        0.48002337        3.90805990
C        6.62179750        1.29938450        4.86672570
C        7.57987620        9.31093020        4.00724110
C        8.41635220       10.27559000        4.85422810
C        7.46756210        0.46939041        2.23194520
C        8.47474690        1.31802290        3.08755470
C        5.67513210        9.27139240        5.79772800
C        6.66831940       10.20266100        6.66043400
C        5.72940490        0.42662136        7.53733050
C        6.64160810        1.36601280        8.46082410
C        7.52485570        9.29067030        7.53181500
C        8.40518590       10.08901300        8.38042750
C        7.54968180        0.51328836        5.73512360
C        8.44413210        1.26988400        6.65535570
C        5.80438710        2.31063550        9.36545920
C        6.66517540        3.14786700       10.12749800
C        5.73461640        3.99801070        0.42760583
C        6.61317430        4.88315270        1.38617460
C        7.60860200        2.22171190        0.51668639
C        8.38619160        3.14440670        1.30787880
C        7.59805940        3.98083370        9.31138550
C        8.48340890        4.90788130       10.24844200
C        5.74899580        2.18635470        2.22742520
C        6.63303380        3.06747890        3.12971520
C        7.58925590        2.26988320        4.05842910
C        8.42384570        3.16035100        4.86066510
C        7.46541390        4.00209550        2.28664990
C        8.39335460        4.86701810        3.09353550
C        5.82118710        2.22104950        5.74527290
C        6.67710660        3.10788150        6.68868410
C        5.86462960        4.01895700        7.54786380
C        6.64271490        4.86347910        8.40079510
C        7.45559470        2.22583980        7.60154940
C        8.43483180        3.09873310        8.42033230
C        7.53521830        3.92338620        5.81614420
C        8.45667480        4.84166340        6.64884690
C        5.78178250        5.77317240        9.30300260
C        6.70230100        6.64184260       10.19284900
C        5.71217800        7.59274300        0.48829084
C        6.66373110        8.37673250        1.35341100
C        7.56818360        5.79051960        0.49840773
C        8.41559510        6.64924390        1.36768670
C        7.53408060        7.55989550        9.30173470
C        8.46720210        8.34320370       10.27428200
C        5.75710800        5.81534790        2.20966270
C        6.60641550        6.64842610        3.09457160
C        5.75960410        7.50118790        4.00816480
C        6.64246330        8.44132050        4.86737080
C        7.60604990        5.89064870        3.91719580
C        8.41311900        6.64378120        4.90019370
C        7.58256680        7.46678390        2.26539990
C        8.38843910        8.40907610        3.09675860
C        5.66455220        5.83042760        5.84920890
C        6.63672980        6.62921580        6.70986850
C        5.78659550        7.55891260        7.55140360
C        6.65531530        8.50181040        8.42240910
C        7.52307310        5.80001740        7.54847190
C        8.42857370        6.63052260        8.43063660
C        7.48301940        7.53026230        5.69365760
C        8.42842720        8.33282420        6.63687650
N        5.64523560        3.91284630        3.85987170
