&CONTROL
calculation = 'scf'
restart_mode = 'from_scratch'
verbosity = 'high'
wf_collect = .true.
pseudo_dir='/home/arpank/pseudopotentials/'
tprnfor = .true.
/
&SYSTEM
ibrav = 0
ecutwfc = 60
tot_charge = -1
nspin = 2
tot_magnetization = 2.0
nbnd = 480
nat = 215
ntyp = 2
input_dft = 'PBE0'
exx_fraction = 0.18
ecutfock = 120
/
&ELECTRONS
conv_thr = 1D-8
diago_full_acc=.true.
mixing_beta = 0.3
/
&IONS
ion_dynamics='bfgs'
ion_positions='default'
/
K_POINTS gamma
ATOMIC_SPECIES
C  12.01099968  C_ONCV_PBE-1.0.upf
N  14.00699997  N_ONCV_PBE-1.0.upf
CELL_PARAMETERS angstrom
    10.65000000      0.00000000      0.00000000
     0.00000000     10.65000000      0.00000000
     0.00000000      0.00000000     10.65000000
ATOMIC_POSITIONS angstrom
C        9.26239130        9.46645480        9.28357840
C       10.23002200       10.27124900       10.14388900
C        9.27388450        0.46580679        0.41276212
C       10.15616400        1.29231450        1.29223110
C        0.44905272        9.29556560        0.42284961
C        1.28639830       10.12884200        1.35505840
C        0.39505425        0.44506327        9.38797930
C        1.35856910        1.30239230       10.18952500
C        9.30727090        9.30352860        2.21155030
C       10.16709300       10.25748600        3.12814880
C        9.34500690        0.38142607        3.96137950
C       10.23156900        1.32188230        4.90256670
C        0.47134876        9.41386230        3.96514520
C        1.35035480       10.16123700        4.83674640
C        0.39088953        0.44342858        2.25387610
C        1.34165320        1.27348540        3.13334850
C        9.31586880        9.36087550        5.77013730
C       10.21022100       10.29629000        6.61747560
C        9.38958720        0.47568851        7.43030990
C       10.21772600        1.38291300        8.41698820
C        0.48615258        9.41037060        7.60185730
C        1.33229980       10.22575500        8.41786010
C        0.50945513        0.43312252        5.81504720
C        1.30924850        1.35312400        6.62537400
C        9.31397650        2.30400420        9.34269950
C       10.18345900        3.14844900       10.16303200
C        9.23024290        3.99680430        0.38752728
C       10.14826400        4.89635520        1.32901790
C        0.45114794        2.18150320        0.42339462
C        1.23587560        3.08300530        1.31015960
C        0.37126275        3.96502580        9.35422600
C        1.24294910        4.76758780       10.21254100
C        9.23560900        2.25123340        2.19985130
C       10.09923300        3.13575000        3.10929060
C        9.33772630        4.00033010        3.98480400
C       10.19815300        4.89467900        4.87247800
C        0.45500416        2.17811720        4.02439840
C        1.34299050        3.09820210        4.83101030
C        0.37273946        4.01993490        2.25377110
C        1.34480800        4.93091890        3.12395500
C        9.35639340        2.21235740        5.74696890
C       10.15285600        3.15245280        6.63265180
C        9.33168380        3.98596940        7.53461040
C       10.16896100        4.85503590        8.38876390
C        0.40625511        2.23983940        7.52944120
C        1.34122340        3.09740530        8.46497060
C        0.42733520        4.05112790        5.71692580
C        1.39549680        4.94245180        6.65669920
C        9.30562590        5.75605870        9.31761780
C       10.14514600        6.62552360       10.18892700
C        9.31483720        7.53475940        0.42108749
C       10.20561500        8.45006060        1.23647790
C        0.41071792        5.82012230        0.50107301
C        1.37317640        6.68068160        1.36995590
C        0.42728890        7.50799090        9.39149330
C        1.34113790        8.43217320       10.20811800
C        9.39414160        5.79409100        2.20670260
C       10.28129600        6.68794740        3.13488920
C        9.37384280        7.54509540        3.98441470
C       10.25265800        8.43756800        4.85939220
C        0.40776276        5.77840750        4.10637370
C        1.30159380        6.72920610        4.88151760
C        0.41328056        7.51481900        2.20053960
C        1.33224730        8.49768290        3.04953830
C        9.32791900        5.72038930        5.73871360
C       10.22202100        6.66085410        6.60073370
C        9.37371140        7.55259420        7.53557900
C       10.23964700        8.42452450        8.46198080
C        0.49748036        5.77090550        7.50302110
C        1.37808320        6.60464400        8.43317220
C        0.41861163        7.53314940        5.71443800
C        1.35676450        8.45785550        6.68048890
C        2.24203700        9.37297460        9.36054220
C        3.08357060       10.17619900       10.25953100
C        2.20657700        0.38947563        0.44900610
C        3.09050990        1.35230930        1.35838210
C        4.00755710        9.33934290        0.42851756
C        4.87782440       10.21409300        1.29925030
C        4.02370950        0.45681176        9.30628420
C        4.95438700        1.37650930       10.16317300
C        2.22008540        9.23350330        2.22974340
C        3.17404390       10.16549800        3.07808510
C        2.19761820        0.38134521        3.94128160
C        3.14963060        1.27709730        4.82970490
C        4.05435790        9.29683130        4.00646860
C        4.85977340       10.15694800        4.88535210
C        4.00430570        0.45149822        2.19534250
C        4.90900800        1.36964270        3.08007960
C        2.30811000        9.36869910        5.74933230
C        3.06747160       10.17418600        6.68468410
C        2.20785520        0.52903246        7.55719200
C        3.13629980        1.36257180        8.47154620
C        3.93406900        9.31344750        7.59936800
C        4.89150730       10.23939200        8.41798740
C        3.94783480        0.43192659        5.76933690
C        4.80247070        1.35363920        6.61490690
C        2.22102390        2.23839620        9.26771720
C        3.05463540        3.05544810       10.19989500
C        2.16467530        3.95067700        0.48427509
C        3.04275060        4.80838270        1.35696570
C        3.95352230        2.20332170        0.42591245
C        4.86882360        3.03400690        1.29225330
C        4.02210720        3.92853660        9.35847790
C        4.87777270        4.87613820       10.25752800
C        2.26756820        2.16498500        2.22196690
C        3.12369900        3.05455560        3.08809910
C        2.20996740        4.01937800        3.99162980
C        3.07450660        4.91025300        4.88877750
C        4.01091640        2.22005870        4.03993950
C        4.94272800        3.17184450        4.89747270
C        4.02716480        3.95459330        2.26851680
C        4.91503830        4.78284560        3.09989990
C        2.26340490        2.22419210        5.66592860
C        3.12410920        3.09632990        6.70176750
C        2.25016620        4.00257680        7.52620400
C        3.10330220        4.86825000        8.51846240
C        4.02803860        2.23617140        7.52647860
C        4.88421690        3.12156080        8.44883300
C        4.02076110        3.95164410        5.72961270
C        4.86252210        4.88694960        6.69403660
C        2.26238590        5.74563640        9.33775490
C        3.04288840        6.63064080       10.23372600
C        2.16220530        7.55667620        0.45863249
C        3.12856860        8.38611050        1.30501590
C        3.97208210        5.75042940        0.44602013
C        4.85749870        6.60891790        1.34129280
C        4.02186470        7.47266070        9.42825550
C        4.88066740        8.36589860       10.18537100
C        2.19305150        5.75699520        2.15775820
C        3.04331550        6.62704410        3.10568440
C        2.18532040        7.52395990        3.98943050
C        3.16537220        8.44520980        4.84718730
C        3.99037030        5.78634030        3.99194440
C        4.87842360        6.56251700        4.92785160
C        3.90364470        7.56762360        2.26025470
C        4.91931680        8.44446320        3.17057550
C        2.22799800        5.83645110        5.77180130
C        3.10986280        6.66371870        6.64715070
C        2.17851100        7.59209650        7.51121290
C        3.06772330        8.41346900        8.48626680
C        4.03637290        5.78546770        7.58562790
C        4.97239300        6.65273460        8.44297030
C        4.04638830        7.62027200        5.72974140
C        4.86119380        8.44374540        6.69922320
C        5.73891110        9.33445910        9.32778340
C        6.68214150       10.12136500       10.20589600
C        5.79984490        0.41833339        0.43255889
C        6.59667860        1.32608370        1.37822850
C        7.56516840        9.27278540        0.44420035
C        8.42173820       10.11065400        1.38155650
C        7.56592720        0.47234975        9.26523580
C        8.43238710        1.33962260       10.16428300
C        5.85749700        9.28925960        2.22625540
C        6.62947490       10.22478000        3.14194050
C        5.77423370        0.53973071        4.03790350
C        6.66100380        1.36105620        4.86421490
C        7.47848420        9.32205990        3.93133690
C        8.33814750       10.24141300        4.87823910
C        7.56536040        0.41537084        2.22911660
C        8.43077780        1.33782070        3.08558820
C        5.74030490        9.34129940        5.74783690
C        6.62230270       10.25474300        6.62024330
C        5.77783880        0.47493699        7.47710010
C        6.61957500        1.22723520        8.41385760
C        7.59022590        9.29338000        7.50887940
C        8.44935720       10.26647900        8.33371400
C        7.54543220        0.44819642        5.65855720
C        8.47775210        1.33356060        6.62961070
C        5.79375570        2.21758210        9.28657440
C        6.69020370        3.07184570       10.20762800
C        5.78865000        3.97603710        0.46988074
C        6.57628700        4.94773150        1.38490520
C        7.54861020        2.28637250        0.40226119
C        8.35332720        3.13359870        1.34534380
C        7.46632040        4.03491140        9.31044310
C        8.37866860        4.83898900       10.21123900
C        5.77758820        2.16801770        2.19020880
C        6.67707550        3.09925390        3.11585320
C        7.61247050        2.20397010        4.02401040
C        8.47452920        3.06075750        4.85118220
C        7.54506920        4.04511330        2.26073310
C        8.36378350        4.89407780        3.13663470
C        5.81730860        2.23620330        5.75395670
C        6.61899150        3.13057060        6.69967500
C        5.75727870        4.07877340        7.54340040
C        6.67369200        4.85321580        8.46895740
C        7.48311210        2.24344580        7.57550360
C        8.44347740        3.06985280        8.40972120
C        7.62348620        3.90469920        5.78637680
C        8.43235410        4.77436900        6.72343290
C        5.79189210        5.75809000        9.31498270
C        6.71024570        6.69112870       10.21785900
C        5.85137170        7.44495550        0.37551496
C        6.70467770        8.42764580        1.37658920
C        7.47163770        5.76377200        0.51397296
C        8.41307380        6.67116660        1.37355040
C        7.53225690        7.48391290        9.35159130
C        8.40739150        8.45972180       10.23821000
C        5.80012150        5.73523790        2.32865160
C        6.69605430        6.69902570        3.20498110
C        5.76052400        7.53407700        3.97484210
C        6.62236750        8.44047390        4.90705750
C        7.61281510        5.87925840        3.97724610
C        8.43862900        6.64227540        4.87251660
C        7.59215780        7.53751330        2.25237110
C        8.43987630        8.44863100        3.05012480
C        5.78809720        5.82529910        5.83056690
C        6.63522260        6.63347860        6.69551210
C        5.77927420        7.60931280        7.53567690
C        6.71861640        8.41033260        8.41194330
C        7.59658380        5.77644150        7.50109070
C        8.41519880        6.70220580        8.45907820
C        7.56615270        7.49124670        5.77060260
C        8.45182730        8.43292840        6.62527310
N        5.69154710        3.92875850        3.96474650
