&CONTROL
calculation = 'scf'
restart_mode = 'from_scratch'
verbosity = 'high'
wf_collect = .true.
pseudo_dir='/home/arpank/pseudopotentials/'
tprnfor = .true.
/
&SYSTEM
ibrav = 0
ecutwfc = 60
tot_charge = -1
nspin = 2
tot_magnetization = 2.0
nbnd = 480
nat = 215
ntyp = 2
input_dft = 'PBE0'
exx_fraction = 0.18
ecutfock = 120
/
&ELECTRONS
conv_thr = 1D-8
diago_full_acc=.true.
mixing_beta = 0.3
/
&IONS
ion_dynamics='bfgs'
ion_positions='default'
/
K_POINTS gamma
ATOMIC_SPECIES
C  12.01099968  C_ONCV_PBE-1.0.upf
N  14.00699997  N_ONCV_PBE-1.0.upf
CELL_PARAMETERS angstrom
    10.65000000      0.00000000      0.00000000
     0.00000000     10.65000000      0.00000000
     0.00000000      0.00000000     10.65000000
ATOMIC_POSITIONS angstrom
C        9.31739510        9.31653440        9.36403040
C       10.17384000       10.22089200       10.24298000
C        9.33550860        0.44679933        0.45255921
C       10.25074100        1.36856330        1.33043770
C        0.42657357        9.27486890        0.39271251
C        1.32176080       10.20741400        1.38571650
C        0.44570966        0.46292224        9.33215950
C        1.36889140        1.35674670       10.20069700
C        9.39681220        9.36049830        2.18823000
C       10.19960800       10.21073300        3.12987920
C        9.35638780        0.43679606        4.02129860
C       10.21191100        1.24254780        4.85855860
C        0.46405368        9.40381600        4.05584550
C        1.39525840       10.26285600        4.96818150
C        0.47451402        0.51231944        2.22359130
C        1.28386660        1.28324980        3.06174870
C        9.33432250        9.26955160        5.77250760
C       10.15182100       10.25737300        6.61483350
C        9.37586010        0.48108007        7.57211370
C       10.12340300        1.36075660        8.48573950
C        0.42878300        9.40116470        7.58111830
C        1.31173360       10.24071200        8.46914400
C        0.45116789        0.39363882        5.73809430
C        1.27828750        1.36400930        6.67494950
C        9.29301670        2.22797820        9.34190670
C       10.20242900        3.10923390       10.20682900
C        9.32598780        4.00540860        0.47488412
C       10.17048200        4.97897930        1.30577880
C        0.41131815        2.31483830        0.42797984
C        1.33759970        3.10508010        1.31798100
C        0.40371781        3.98398320        9.36784570
C        1.33522480        4.92296710       10.16634000
C        9.36585630        2.21064580        2.25470420
C       10.17391200        3.10031530        3.08788330
C        9.28477520        3.97551280        4.02384350
C       10.19640100        4.88575390        4.86737490
C        0.44736824        2.21419410        3.97490190
C        1.30321190        3.07717070        4.83201060
C        0.45091947        4.01750400        2.20602900
C        1.28008150        4.97551130        3.01408900
C        9.31677420        2.20929740        5.73446080
C       10.27848400        3.04997990        6.64599500
C        9.31565340        3.96276650        7.52024880
C       10.21941700        4.90992600        8.48833220
C        0.48791084        2.18314050        7.52854100
C        1.34350820        3.07857240        8.42275660
C        0.45648200        4.00661330        5.77754830
C        1.42205520        4.88543430        6.62511790
C        9.35724820        5.81778290        9.38393280
C       10.20358500        6.71969460       10.19827000
C        9.27570000        7.61154340        0.44342447
C       10.13805400        8.44258900        1.28623220
C        0.44129042        5.78147680        0.44829017
C        1.32720050        6.68345560        1.33786300
C        0.42732261        7.58324720        9.32470800
C        1.33663880        8.47276000       10.28800100
C        9.29929910        5.76808250        2.24367380
C       10.16084700        6.79498960        3.14880920
C        9.41036930        7.57015480        3.98739720
C       10.28965900        8.46071130        4.85317860
C        0.43592803        5.76799960        4.04756690
C        1.31156070        6.68197530        4.92820290
C        0.49816976        7.63659490        2.21182610
C        1.31950810        8.45446760        3.19985110
C        9.30235100        5.77473620        5.80260580
C       10.20302400        6.65540490        6.63457890
C        9.29585040        7.55018770        7.56768830
C       10.16379100        8.48098830        8.48701000
C        0.43750477        5.68086620        7.50168710
C        1.27325490        6.69320870        8.52492090
C        0.41344888        7.53655520        5.84970020
C        1.35408400        8.47285980        6.68621880
C        2.23303560        9.29873720        9.29426460
C        3.08145590       10.18468200       10.12194700
C        2.21227420        0.43968346        0.46136033
C        3.10168120        1.32947950        1.30637420
C        3.99283890        9.33043090        0.42093250
C        4.85436670       10.22581000        1.37512170
C        4.02236140        0.40948816        9.29163050
C        4.89381780        1.27708650       10.21650700
C        2.20030000        9.39345440        2.24754680
C        3.12441270       10.20026100        3.12165920
C        2.18923270        0.40201754        4.04208740
C        3.08434980        1.29490560        4.88806480
C        4.03355620        9.28847080        3.96720290
C        4.90240650       10.20235000        4.83712830
C        4.01088110        0.32214468        2.18603720
C        4.89185860        1.29154810        3.01295980
C        2.28290640        9.33602700        5.74738030
C        3.10006860       10.16685300        6.61548750
C        2.18175460        0.40566035        7.53548070
C        3.06784590        1.27182450        8.44647140
C        4.04336020        9.26583240        7.47466730
C        4.96980420       10.17054900        8.36215890
C        4.06625640        0.43259089        5.82043760
C        4.85898870        1.43194260        6.63265010
C        2.23800110        2.21651200        9.32152710
C        3.12594230        3.11831270       10.20726500
C        2.24388660        3.99448260        0.42222704
C        3.08484930        4.86239600        1.33763600
C        3.90687990        2.15217970        0.39899502
C        4.78856950        3.09034660        1.34108420
C        3.97531010        4.00579360        9.30907440
C        4.82518960        4.92320070       10.22075000
C        2.25665920        2.18994140        2.12245060
C        3.07634840        3.08289180        3.11939010
C        2.19125970        4.02833480        3.99040090
C        3.12347640        4.91926330        4.96370020
C        3.94685880        2.20172680        3.94635520
C        4.86647670        3.06499790        4.84683500
C        3.95271440        3.95476910        2.27283190
C        4.85584930        4.83441270        3.08190810
C        2.18183860        2.19152790        5.65484940
C        3.10389240        3.09477310        6.57457220
C        2.23774820        4.02715090        7.47057410
C        3.04530660        4.84229100        8.42427780
C        3.99478120        2.21851770        7.51680540
C        4.92453540        3.07718150        8.41850550
C        4.05683330        3.97926320        5.76110990
C        4.95772190        4.87053310        6.69932840
C        2.11639930        5.82099500        9.36626470
C        3.07339870        6.65458170       10.17424400
C        2.23555460        7.54606180        0.44242770
C        3.10561650        8.51887760        1.29871140
C        3.91097910        5.75794200        0.41596364
C        4.92523570        6.57383330        1.27019750
C        4.05971290        7.49770760        9.37005100
C        4.84522550        8.33612730       10.26195800
C        2.25913750        5.72904480        2.12389740
C        3.09895130        6.59287980        3.05909400
C        2.26155570        7.51074480        3.91860510
C        3.13890140        8.35038570        4.90571420
C        3.95730190        5.77428120        4.07019340
C        4.92153690        6.56120160        4.97222860
C        4.00054360        7.52598460        2.23324680
C        4.90649910        8.39049340        3.04504320
C        2.26232960        5.81738580        5.76233610
C        3.14052570        6.60643230        6.73467400
C        2.21285260        7.61816800        7.56907190
C        3.14007750        8.45062770        8.51023360
C        4.00042600        5.75455660        7.53485430
C        4.85995570        6.65747890        8.48839670
C        4.04471510        7.42777930        5.75990630
C        4.93748600        8.31423550        6.67704750
C        5.78571210        9.26511420        9.37746510
C        6.72153930       10.16264500       10.22280500
C        5.75660010        0.37998881        0.44685456
C        6.71927680        1.34003310        1.31418840
C        7.49886260        9.29514640        0.44533734
C        8.42030600       10.16598500        1.35392920
C        7.53669880        0.48551267        9.33359560
C        8.38499790        1.34390800       10.24529700
C        5.74604000        9.30522810        2.19459020
C        6.68311900       10.22302400        3.08429000
C        5.79588200        0.49019080        3.91988240
C        6.64496210        1.37331210        4.82053960
C        7.50001410        9.36292590        3.96886330
C        8.43099210       10.20413900        4.83182470
C        7.58296560        0.42434095        2.17995920
C        8.40288600        1.38806820        3.05614520
C        5.79541350        9.32932750        5.76259380
C        6.66180950       10.23092900        6.58720930
C        5.84902800        0.44290882        7.49661360
C        6.66711830        1.39100700        8.41964110
C        7.58852370        9.34771690        7.55066640
C        8.40333410       10.22059400        8.45624810
C        7.61268490        0.40776353        5.76971050
C        8.35656380        1.29368990        6.63835690
C        5.70931570        2.24082190        9.38791480
C        6.61214870        3.14426680       10.21581900
C        5.78445850        4.01356430        0.52942825
C        6.72348350        4.81862670        1.30529000
C        7.48695390        2.22480840        0.41503943
C        8.39060300        3.14065170        1.33510210
C        7.52154940        4.08053430        9.41356280
C        8.51530900        4.91671350       10.20987000
C        5.67974010        2.16896360        2.18713030
C        6.56888260        3.10571690        3.12201540
C        7.50670700        2.26906780        3.94126580
C        8.43445120        3.13654460        4.86472470
C        7.53377770        4.00690250        2.23226240
C        8.43470800        4.89780700        3.13121150
C        5.79109900        2.20846300        5.71190350
C        6.64317720        3.14781320        6.66600280
C        5.78175980        3.96224280        7.53606230
C        6.72861780        4.91614310        8.44359030
C        7.55231180        2.23905030        7.62877300
C        8.41023540        3.10946290        8.43983630
C        7.58992040        3.94020650        5.88331930
C        8.44877150        4.84359850        6.63807030
C        5.77146700        5.75102140        9.34279730
C        6.65333940        6.63333930       10.18397500
C        5.80605420        7.49461520        0.45246828
C        6.64258480        8.42733180        1.35115510
C        7.58382150        5.81427860        0.49305827
C        8.42651050        6.65858570        1.27111370
C        7.52275520        7.58906780        9.32789920
C        8.44277880        8.42534260       10.19346500
C        5.78354480        5.74970600        2.22167400
C        6.69681780        6.67194270        3.09226760
C        5.77465100        7.60109040        3.98873260
C        6.61494100        8.47159300        4.87703880
C        7.61522530        5.82802090        3.96836340
C        8.44107450        6.64704220        4.91066090
C        7.60158780        7.54619400        2.19538150
C        8.51619480        8.42042270        3.11919290
C        5.70412960        5.72437490        5.81261970
C        6.55829940        6.58502280        6.60770510
C        5.74594980        7.56103940        7.51952330
C        6.58139760        8.42791250        8.36931610
C        7.55531070        5.72939760        7.55094120
C        8.38743180        6.58495660        8.42673190
C        7.48958890        7.51780040        5.75328170
C        8.36608720        8.42344840        6.71620420
N        5.71097500        3.90905080        3.92581130
