&CONTROL
calculation = 'scf'
restart_mode = 'from_scratch'
verbosity = 'high'
wf_collect = .true.
pseudo_dir='/home/arpank/pseudopotentials/'
tprnfor = .true.
/
&SYSTEM
ibrav = 0
ecutwfc = 60
tot_charge = -1
nspin = 2
tot_magnetization = 2.0
nbnd = 480
nat = 215
ntyp = 2
input_dft = 'PBE0'
exx_fraction = 0.18
ecutfock = 120
/
&ELECTRONS
conv_thr = 1D-8
diago_full_acc=.true.
mixing_beta = 0.3
/
&IONS
ion_dynamics='bfgs'
ion_positions='default'
/
K_POINTS gamma
ATOMIC_SPECIES
C  12.01099968  C_ONCV_PBE-1.0.upf
N  14.00699997  N_ONCV_PBE-1.0.upf
CELL_PARAMETERS angstrom
    10.65000000      0.00000000      0.00000000
     0.00000000     10.65000000      0.00000000
     0.00000000      0.00000000     10.65000000
ATOMIC_POSITIONS angstrom
C        9.33028320        9.32169220        9.31834430
C       10.23166900       10.17510900       10.19915300
C        9.28934790        0.51093715        0.46979745
C       10.21688600        1.41272420        1.37760020
C        0.40480235        9.34878350        0.42801282
C        1.22888600       10.22742900        1.32315490
C        0.47076673        0.45652125        9.41812820
C        1.38382330        1.33485370       10.20438300
C        9.24732060        9.31171100        2.24121410
C       10.16486900       10.19219400        3.12363940
C        9.26649680        0.42523549        3.93224740
C       10.18780200        1.28241060        4.87345520
C        0.39239718        9.29963160        4.06149860
C        1.32524380       10.23462000        4.87588520
C        0.41195610        0.50063618        2.24553390
C        1.37390860        1.33660330        3.15086180
C        9.30424890        9.38727270        5.79150980
C       10.19490700       10.35999000        6.68534800
C        9.32701110        0.50404854        7.58988980
C       10.33898100        1.37197930        8.48281000
C        0.44937538        9.34405750        7.50454320
C        1.33566890       10.28983700        8.36561110
C        0.37581547        0.38284028        5.68918010
C        1.37331930        1.32446990        6.62628640
C        9.32912310        2.25614420        9.34527940
C       10.17580700        3.12528060       10.18768800
C        9.25410500        4.01975740        0.49987282
C       10.24849500        4.82332100        1.30902240
C        0.44804294        2.24736100        0.48929707
C        1.32340710        3.05482780        1.40286660
C        0.35416829        3.98726080        9.27635120
C        1.33067200        4.86080190       10.10073500
C        9.28154680        2.23549200        2.22219460
C       10.29258600        3.11684560        3.08607190
C        9.29198570        3.94364950        3.95510320
C       10.14232400        4.81915850        4.81677390
C        0.43396172        2.22445670        4.02620540
C        1.30823670        3.10527020        4.89748370
C        0.49591938        3.98639450        2.27441860
C        1.30056920        4.82959610        3.16504590
C        9.32023570        2.21466320        5.77880620
C       10.23375700        3.14933520        6.61738070
C        9.31504440        3.96200510        7.59697110
C       10.17584800        4.88865450        8.44444970
C        0.51130383        2.16283710        7.54168390
C        1.32620810        3.13535990        8.45098960
C        0.46957534        3.97365540        5.74363360
C        1.29725110        4.89722110        6.60792420
C        9.28315820        5.68864510        9.36973230
C       10.22424900        6.67274120       10.25917400
C        9.36311080        7.49889230        0.47732473
C       10.13079500        8.42881240        1.34938510
C        0.42119412        5.78073250        0.43596580
C        1.39551620        6.71677530        1.34699220
C        0.47074515        7.58680480        9.29330280
C        1.29913150        8.38972100       10.12301900
C        9.32141170        5.73449830        2.27192830
C       10.27068500        6.67041810        3.19347630
C        9.31895180        7.54865000        4.03861120
C       10.22742500        8.41298960        4.94688490
C        0.47383498        5.78083520        4.03242260
C        1.27031670        6.68421340        4.91430200
C        0.42653369        7.55891240        2.09827180
C        1.29241990        8.44143900        3.13090700
C        9.36087250        5.75251950        5.76559640
C       10.26853800        6.67015800        6.67602520
C        9.30671410        7.55475050        7.47226600
C       10.21705100        8.51726920        8.38508240
C        0.47336415        5.79836590        7.50473590
C        1.33773170        6.64772850        8.47374860
C        0.43556497        7.55570400        5.81937340
C        1.32452780        8.41876970        6.65069690
C        2.24388600        9.32865800        9.26252730
C        3.07204460       10.14281200       10.17983900
C        2.20947510        0.40788462        0.47478812
C        3.09814340        1.26827440        1.42400750
C        3.96248390        9.25211850        0.38544955
C        4.83147690       10.22662200        1.35620200
C        3.94434310        0.45281163        9.23342580
C        4.88590050        1.33642870       10.17406400
C        2.24154150        9.37886500        2.16376580
C        3.09176410       10.21540400        3.04487240
C        2.15899230        0.44627323        3.99605250
C        3.11033140        1.26941090        4.87951690
C        4.05496070        9.24905710        3.93109730
C        4.91443240       10.24944000        4.90159210
C        4.00722260        0.47276962        2.27855740
C        4.84429390        1.37950310        3.13935350
C        2.23083950        9.34035230        5.75325650
C        3.15602880       10.26411200        6.66272250
C        2.22792850        0.50813415        7.48855650
C        3.09403660        1.34170810        8.47093260
C        4.03016070        9.33036450        7.54599340
C        4.91090420       10.23999900        8.51899540
C        3.97486830        0.45784799        5.77179700
C        4.86586090        1.35845390        6.64954820
C        2.19736720        2.17672940        9.33037710
C        3.16449750        3.09518570       10.13448300
C        2.26893030        4.01180020        0.39593305
C        3.06954190        4.88039950        1.26504390
C        3.98861300        2.23005190        0.43672344
C        4.86877790        3.06018670        1.32422840
C        4.00824850        4.02282380        9.27762790
C        4.86796320        4.89921690       10.09157700
C        2.16612220        2.18895880        2.24907510
C        3.13659360        3.08848300        3.13812610
C        2.20725540        3.96687060        4.04890300
C        3.10399490        4.84726800        4.88398190
C        4.05790910        2.21356480        3.98135360
C        4.89300440        3.08859060        4.86005980
C        3.99813530        4.00260190        2.21653600
C        4.85894700        4.84078500        3.06053960
C        2.18796120        2.22561850        5.80551170
C        3.10853060        3.12140260        6.62050500
C        2.20820820        3.98344790        7.52866680
C        3.06044890        4.85068820        8.33246300
C        4.00235260        2.23169300        7.51214610
C        4.87473140        3.18246200        8.39037890
C        4.02538920        4.00930490        5.72475350
C        4.86788720        4.85531640        6.61126300
C        2.19061740        5.70606730        9.22245190
C        3.11565140        6.59013820       10.15952200
C        2.23725650        7.51780720        0.43337199
C        3.01669620        8.45055070        1.32225280
C        4.06550570        5.75639040        0.39238916
C        4.87910220        6.66915220        1.32447870
C        4.05249090        7.47431980        9.22722660
C        4.90257550        8.36582470       10.12640500
C        2.15365210        5.72238550        2.23700840
C        3.11474460        6.63476330        3.10683290
C        2.15797210        7.57820050        4.02108530
C        3.06093540        8.39195990        4.92453180
C        3.97221380        5.68018950        3.93351650
C        4.89454730        6.64020580        4.87945150
C        3.96296270        7.47559650        2.23866310
C        4.90898950        8.35425230        3.12447090
C        2.18469210        5.76503970        5.68785390
C        3.07697630        6.66102080        6.66637810
C        2.22824920        7.61857530        7.51607730
C        3.08883140        8.42692770        8.45840840
C        3.87489330        5.75231520        7.53904570
C        4.88539670        6.66015590        8.41881500
C        3.97710190        7.51762550        5.75558030
C        4.89535940        8.49604930        6.59827510
C        5.80035560        9.38461520        9.30909750
C        6.65820820       10.23040000       10.19282800
C        5.80418370        0.43249103        0.41486693
C        6.66354530        1.29366410        1.40481130
C        7.55171300        9.31283620        0.43566241
C        8.35475910       10.19407000        1.34689440
C        7.52889960        0.43488914        9.39939530
C        8.40653380        1.43335830       10.19789600
C        5.68801670        9.26258940        2.23172440
C        6.69931370       10.13537400        3.12856970
C        5.75511880        0.36800200        3.99987330
C        6.61676810        1.32096130        4.88591680
C        7.50400970        9.22564890        3.95427360
C        8.41808870       10.13298900        4.89187810
C        7.54458960        0.49779519        2.24987490
C        8.41475820        1.31590650        3.12756340
C        5.72528190        9.29092800        5.76310590
C        6.67033360       10.18824700        6.71854450
C        5.74438110        0.51047346        7.54816850
C        6.64276070        1.29385750        8.44286290
C        7.61934880        9.32317370        7.50912960
C        8.42752880       10.17180000        8.44862960
C        7.49144280        0.41957947        5.83705360
C        8.40448850        1.39459080        6.68879930
C        5.81916950        2.29951710        9.32806510
C        6.64585190        3.14200000       10.19073500
C        5.80545520        4.01813700        0.43137237
C        6.63038990        4.89899420        1.24141140
C        7.50779890        2.21321920        0.45520482
C        8.41960550        3.12250160        1.34503370
C        7.60968210        3.95646690        9.35562700
C        8.49960080        4.94475700       10.25719900
C        5.79561710        2.21613880        2.20330640
C        6.59125050        3.09142630        3.14808650
C        7.59566870        2.23270130        4.02583200
C        8.51772990        3.10701240        4.88514720
C        7.52670680        3.92643540        2.20151320
C        8.38467090        4.83565950        3.10754070
C        5.80764430        2.23653740        5.79778280
C        6.64269720        3.10564590        6.67597740
C        5.78688820        3.96928230        7.53216520
C        6.71325880        4.93433390        8.45394690
C        7.50152240        2.28373470        7.60022020
C        8.45171850        3.08115460        8.45220870
C        7.63691100        3.99674120        5.86572430
C        8.43125800        4.93474590        6.69391720
C        5.80824080        5.75703350        9.36583650
C        6.64401680        6.71157390       10.18438700
C        5.83840710        7.60444130        0.39895977
C        6.71349990        8.44890920        1.35032540
C        7.60943290        5.82404900        0.40781469
C        8.49998050        6.68832440        1.33949330
C        7.54685590        7.57742310        9.30724960
C        8.42872120        8.42282670       10.18807600
C        5.74873170        5.77498800        2.20060770
C        6.66412670        6.66337180        3.19389910
C        5.72376750        7.50895190        4.01113960
C        6.64752880        8.39537540        4.88222440
C        7.60834310        5.84051760        4.01088130
C        8.47505230        6.66735700        4.87930710
C        7.52307840        7.61417430        2.28635350
C        8.45015620        8.37753940        3.17960080
C        5.70146770        5.81345580        5.86294850
C        6.72144800        6.63725930        6.68037510
C        5.81197620        7.47298700        7.53915960
C        6.71646640        8.43632180        8.44873620
C        7.55932770        5.77641500        7.51979600
C        8.44313080        6.63540650        8.43564530
C        7.58610090        7.47773230        5.74245740
C        8.45567700        8.41478730        6.61513290
N        5.70702500        3.90071690        3.85568420
