&CONTROL
calculation = 'scf'
restart_mode = 'from_scratch'
verbosity = 'high'
wf_collect = .true.
pseudo_dir='/home/arpank/pseudopotentials/'
tprnfor = .true.
/
&SYSTEM
ibrav = 0
ecutwfc = 60
tot_charge = -1
nspin = 2
tot_magnetization = 2.0
nbnd = 480
nat = 215
ntyp = 2
input_dft = 'PBE0'
exx_fraction = 0.18
ecutfock = 120
/
&ELECTRONS
conv_thr = 1D-8
diago_full_acc=.true.
mixing_beta = 0.3
/
&IONS
ion_dynamics='bfgs'
ion_positions='default'
/
K_POINTS gamma
ATOMIC_SPECIES
C  12.01099968  C_ONCV_PBE-1.0.upf
N  14.00699997  N_ONCV_PBE-1.0.upf
CELL_PARAMETERS angstrom
    10.65000000      0.00000000      0.00000000
     0.00000000     10.65000000      0.00000000
     0.00000000      0.00000000     10.65000000
ATOMIC_POSITIONS angstrom
C        9.35259470        9.32674830        9.33560100
C       10.18918400       10.23682900       10.23962500
C        9.33662380        0.45575783        0.45126099
C       10.17865600        1.30816710        1.37333650
C        0.39935731        9.28374980        0.46589599
C        1.34125530       10.14264400        1.30014000
C        0.45518387        0.36969128        9.34542980
C        1.34226390        1.30497350       10.19117800
C        9.29788150        9.34533950        2.26263310
C       10.24538600       10.22436100        3.11692420
C        9.33782650        0.42347577        3.97276420
C       10.15581700        1.30847120        4.80442680
C        0.40137846        9.31351320        3.99770600
C        1.23054280       10.22142000        4.93469160
C        0.45490093        0.44183225        2.27504310
C        1.31838850        1.33636970        3.02738150
C        9.24138420        9.32564730        5.89839240
C       10.11297900       10.22358700        6.72460480
C        9.24966620        0.44633547        7.61117950
C       10.21820100        1.38686220        8.44665700
C        0.45653365        9.30024600        7.46601150
C        1.30780240       10.18236200        8.40804780
C        0.35755512        0.42724296        5.79188430
C        1.26430580        1.29273740        6.64776790
C        9.39124630        2.30957820        9.34084690
C       10.26506600        3.17172610       10.22900200
C        9.32681720        3.98593380        0.32896053
C       10.20217200        4.93057810        1.35288520
C        0.41744881        2.20492250        0.41659060
C        1.35909570        3.09487610        1.28766320
C        0.45965823        4.00815040        9.25148110
C        1.40036660        4.83940990       10.16513500
C        9.31913270        2.21435230        2.27442520
C       10.14660200        3.13657760        3.17346030
C        9.21937170        4.04159390        4.03494830
C       10.23225600        4.94250340        4.93920640
C        0.47999116        2.22149750        3.93628600
C        1.39609010        3.14537130        4.88969610
C        0.43724739        3.94343430        2.22835050
C        1.35545360        4.86544110        3.19265080
C        9.26610040        2.19538670        5.73433710
C       10.19383900        3.07642130        6.68015390
C        9.29606530        4.06528950        7.59477730
C       10.26904500        4.94210770        8.46638710
C        0.38163141        2.22987560        7.53303700
C        1.36540770        3.02732320        8.42260000
C        0.51374516        3.95064850        5.80050850
C        1.40189510        4.91336480        6.76803550
C        9.36451570        5.78652220        9.32319860
C       10.20402200        6.69745760       10.26688800
C        9.32241750        7.52010320        0.48041168
C       10.12064700        8.44400220        1.37735150
C        0.52337965        5.80702930        0.43215692
C        1.30332790        6.72370860        1.30309910
C        0.49655709        7.58436030        9.34739470
C        1.32905810        8.50596720       10.25982100
C        9.28469910        5.77166270        2.24450030
C       10.23612700        6.64413390        3.15338870
C        9.35585510        7.54107530        4.07256600
C       10.22563800        8.47438110        4.93658710
C        0.45558687        5.73520560        4.03113930
C        1.29481060        6.66585220        4.96304170
C        0.43988124        7.49824160        2.22693490
C        1.32985170        8.47864660        3.10226540
C        9.27730310        5.70572300        5.83042060
C       10.20156100        6.72847090        6.59769560
C        9.41194540        7.53285430        7.52786310
C       10.20869800        8.45860160        8.48573600
C        0.42845878        5.86338450        7.53709720
C        1.33293610        6.67312420        8.48319390
C        0.42590080        7.60151900        5.76584790
C        1.32883380        8.44551160        6.72951320
C        2.22243040        9.31498460        9.24430830
C        3.07556820       10.22012900       10.19661000
C        2.25160790        0.47390961        0.45634618
C        3.05455570        1.32241420        1.37646730
C        4.01229760        9.30024500        0.46968956
C        4.94171390       10.24578700        1.31242600
C        4.00133810        0.45200775        9.28391800
C        4.92458510        1.36717020       10.18207600
C        2.19674000        9.25741500        2.22211030
C        3.10379590       10.23535600        3.07385940
C        2.25472240        0.45578143        4.00239250
C        3.11933190        1.35370870        4.87071700
C        3.94230700        9.30149800        3.92620570
C        4.85919380       10.23357100        4.79010600
C        4.01221740        0.53953096        2.27757130
C        4.88045210        1.30684680        3.16050860
C        2.19633610        9.22682380        5.73910220
C        3.08466600       10.17086100        6.56614150
C        2.17824600        0.41624086        7.54751860
C        3.12072120        1.31584140        8.39697050
C        4.04584450        9.32409440        7.55513060
C        4.89664630       10.17974900        8.46756070
C        3.97881400        0.45800942        5.70804840
C        4.92674470        1.28954910        6.57778570
C        2.20341060        2.17374400        9.28634510
C        3.12392680        3.05858280       10.15616300
C        2.23849350        4.01372520        0.36444495
C        3.11991640        4.87791350        1.30301390
C        4.00795220        2.21612910        0.44169319
C        4.85447740        3.10758210        1.29670500
C        4.05360030        3.97741020        9.31908590
C        4.82918950        4.83937390       10.10865700
C        2.22530250        2.27505230        2.20123630
C        3.11321570        3.11393320        3.08827840
C        2.27474790        4.03155370        4.05641190
C        3.16546390        4.88363510        4.94995330
C        3.92619230        2.22111300        4.02348130
C        4.97167240        3.10784440        4.79113140
C        3.98764430        3.93126510        2.16791150
C        4.87183320        4.92036730        3.13991130
C        2.22245650        2.19803750        5.75870100
C        3.14237690        3.12786240        6.62180970
C        2.24118920        4.00383240        7.51423360
C        3.14347280        4.86014740        8.41501580
C        4.02955640        2.20136790        7.54491780
C        4.91663960        3.14079390        8.39364740
C        4.04451830        4.02969890        5.68371450
C        4.97772520        4.86077050        6.60059730
C        2.26131550        5.72431970        9.33856050
C        3.07715180        6.68032450       10.23317400
C        2.15559210        7.60590290        0.50171841
C        3.08283560        8.41413430        1.36384320
C        4.03363850        5.81398840        0.35509166
C        4.91666000        6.61310630        1.33078390
C        4.01110200        7.57661970        9.28298640
C        4.90388790        8.45577650       10.17895800
C        2.21885750        5.71697830        2.16622050
C        3.11971000        6.66363970        3.15399690
C        2.14806350        7.50096360        4.01141930
C        3.10132510        8.37600760        4.87780830
C        4.08839310        5.79140060        4.01796050
C        4.90979400        6.68263400        4.94415550
C        4.00615260        7.50202190        2.22421730
C        4.95016780        8.44963400        3.07675070
C        2.17638910        5.78022630        5.81125480
C        3.12875730        6.62266260        6.62833970
C        2.17896960        7.53088060        7.61007380
C        3.10287080        8.45759260        8.35636580
C        3.98004460        5.76348260        7.54580830
C        4.87943820        6.69114510        8.51402670
C        3.95543450        7.61939010        5.80904960
C        4.81837820        8.39030090        6.63363570
C        5.75113410        9.26659130        9.24851650
C        6.68808220       10.17342100       10.22037800
C        5.76511220        0.39742075        0.47809147
C        6.64656860        1.27018160        1.34692570
C        7.57588200        9.30562050        0.39509843
C        8.40413450       10.18845300        1.31460230
C        7.54125280        0.50567451        9.35132830
C        8.45559890        1.31502520       10.26009800
C        5.82923540        9.29428700        2.24635130
C        6.56561370       10.19715900        3.15101510
C        5.84920180        0.45938035        4.01788780
C        6.64491450        1.31415900        4.91568230
C        7.56800870        9.29037020        4.05755750
C        8.36030750       10.22323800        4.81010020
C        7.51386800        0.44987819        2.19978910
C        8.38851920        1.32946040        3.08973340
C        5.76733440        9.29505240        5.78974540
C        6.63748930       10.23461500        6.67445250
C        5.74590250        0.42874589        7.45663840
C        6.70625290        1.33927820        8.37296680
C        7.57466300        9.35517470        7.56492050
C        8.46898670       10.23403200        8.48126580
C        7.56352320        0.53407934        5.75689220
C        8.44351370        1.31875620        6.65585350
C        5.76308030        2.11445980        9.28379810
C        6.57967630        3.10213170       10.16948700
C        5.70811660        3.95580580        0.40374452
C        6.64512290        4.91844410        1.33910130
C        7.51868230        2.19364900        0.35294920
C        8.40931190        3.10203360        1.25915370
C        7.54240060        3.92208410        9.27587010
C        8.44078230        4.88977490       10.14432200
C        5.76579540        2.25281940        2.23011600
C        6.64375460        3.04289430        3.02975620
C        7.58108760        2.23607620        3.92083570
C        8.41948430        3.06254920        4.93118340
C        7.53421120        3.97605530        2.18610480
C        8.39179360        4.93801740        3.09060940
C        5.86553580        2.21693460        5.76050710
C        6.66533520        3.12370270        6.67289930
C        5.76506630        3.97222150        7.53021740
C        6.69543640        4.84484390        8.46648270
C        7.52257290        2.22042940        7.47805810
C        8.39842630        3.11131350        8.36881650
C        7.61993370        3.94917710        5.78666440
C        8.45902530        4.90042890        6.65625100
C        5.75566390        5.74614960        9.31369900
C        6.65971350        6.63092280       10.21769300
C        5.74298760        7.54569650        0.44587755
C        6.66986600        8.36738160        1.36647710
C        7.55903630        5.81308380        0.42033713
C        8.44532300        6.63942440        1.34253940
C        7.55458390        7.50733940        9.30663500
C        8.41659180        8.46373960       10.16186300
C        5.83205880        5.67689190        2.24097000
C        6.60646070        6.64667020        3.09613490
C        5.71344860        7.54291170        4.01640590
C        6.63271470        8.43308250        4.90142390
C        7.57420900        5.86385660        3.95687640
C        8.34374570        6.63181790        4.88330960
C        7.48304260        7.51740900        2.16364780
C        8.43564790        8.43509830        3.19436890
C        5.73941740        5.84062710        5.88421640
C        6.60571090        6.62375170        6.65581870
C        5.77129620        7.55482030        7.56030990
C        6.62951510        8.36781710        8.45622070
C        7.45197630        5.73868980        7.53659490
C        8.43651050        6.69117360        8.39525910
C        7.49075440        7.57511890        5.84114000
C        8.48686410        8.43807570        6.70197500
N        5.69890810        3.92819710        3.86692170
