&CONTROL
calculation = 'scf'
restart_mode = 'from_scratch'
verbosity = 'high'
wf_collect = .true.
pseudo_dir='/home/arpank/pseudopotentials/'
tprnfor = .true.
/
&SYSTEM
ibrav = 0
ecutwfc = 60
tot_charge = -1
nspin = 2
tot_magnetization = 2.0
nbnd = 480
nat = 215
ntyp = 2
input_dft = 'PBE0'
exx_fraction = 0.18
ecutfock = 120
/
&ELECTRONS
conv_thr = 1D-8
diago_full_acc=.true.
mixing_beta = 0.3
/
&IONS
ion_dynamics='bfgs'
ion_positions='default'
/
K_POINTS gamma
ATOMIC_SPECIES
C  12.01099968  C_ONCV_PBE-1.0.upf
N  14.00699997  N_ONCV_PBE-1.0.upf
CELL_PARAMETERS angstrom
    10.65000000      0.00000000      0.00000000
     0.00000000     10.65000000      0.00000000
     0.00000000      0.00000000     10.65000000
ATOMIC_POSITIONS angstrom
C        9.36306180        9.30592670        9.32112890
C       10.24631400       10.17108500       10.27471800
C        9.33196610        0.44683022        0.40143059
C       10.22885700        1.37870590        1.37386200
C        0.48531274        9.30942650        0.47915194
C        1.31398490       10.22692900        1.34662110
C        0.47327529        0.41224187        9.29883550
C        1.27708940        1.34299410       10.16270400
C        9.30446120        9.30741800        2.14180190
C       10.20728200       10.28442300        3.06205960
C        9.28522550        0.31899207        3.97775160
C       10.22182000        1.42026490        4.91145400
C        0.38306935        9.36219310        3.97400680
C        1.32205950       10.20186800        4.87163210
C        0.46998355        0.49398422        2.22297410
C        1.31764540        1.35337040        3.10680600
C        9.33454390        9.29237670        5.76101840
C       10.13297600       10.22233700        6.63609010
C        9.29219240        0.47256808        7.52063080
C       10.07882800        1.33683170        8.42617770
C        0.39088735        9.23853330        7.58833380
C        1.29998220       10.09374600        8.41147400
C        0.50963683        0.47204707        5.75773020
C        1.28954380        1.28034870        6.57519840
C        9.24291070        2.21397380        9.30341580
C       10.19588900        3.05516940       10.20384500
C        9.27805420        4.03653130        0.44148999
C       10.17632800        4.88629320        1.35074490
C        0.42046461        2.23460010        0.38341255
C        1.33813710        3.07500980        1.37008180
C        0.47272892        3.97362260        9.31995550
C        1.35064390        4.89909810       10.16120700
C        9.28056920        2.28201540        2.21047050
C       10.14314900        3.12497330        3.18857430
C        9.28479370        4.08882410        3.99827360
C       10.16834200        4.88350470        4.84927960
C        0.39343033        2.27952420        4.06706660
C        1.32080560        3.10863790        4.93880900
C        0.42689769        3.99366250        2.21422610
C        1.29363610        4.81196410        3.12763020
C        9.33581240        2.31348390        5.74620110
C       10.21985000        3.15528660        6.71304570
C        9.35457280        3.97631700        7.57861930
C       10.17120000        4.88050080        8.48183770
C        0.45008702        2.10092370        7.54824270
C        1.34765780        3.16278300        8.42412100
C        0.37954485        3.97462560        5.80438540
C        1.32119680        4.87129580        6.73075790
C        9.36908340        5.77209040        9.35502240
C       10.19693000        6.61601970       10.18377200
C        9.27349290        7.52169710        0.47328337
C       10.15500200        8.42762330        1.32601750
C        0.49711854        5.81893350        0.44549473
C        1.37111450        6.64637490        1.32386470
C        0.42937772        7.54661200        9.33816970
C        1.31019620        8.42828760       10.25926300
C        9.25113900        5.79229610        2.28033580
C       10.23571500        6.61326070        3.08352090
C        9.35850770        7.49798510        3.99474730
C       10.12098300        8.45121080        4.79927580
C        0.47173431        5.73756040        4.02913140
C        1.27039020        6.62041330        4.90363710
C        0.42892442        7.47747510        2.25003600
C        1.28921340        8.46307320        3.20590920
C        9.30813890        5.78296670        5.85543480
C       10.26881400        6.70618340        6.72565140
C        9.32973860        7.56502450        7.54929250
C       10.19128300        8.43255080        8.46423330
C        0.43943447        5.79849970        7.54390040
C        1.31223390        6.68898350        8.45105260
C        0.39554233        7.53359840        5.72377450
C        1.25895000        8.35928840        6.68899200
C        2.25829580        9.24463310        9.35111720
C        3.11502860       10.21848500       10.07617600
C        2.20428040        0.44992692        0.43479182
C        3.14214180        1.33044140        1.30927570
C        3.91919030        9.32402760        0.45692545
C        4.88864300       10.22700100        1.31342930
C        3.99120090        0.39525593        9.30693660
C        4.87361410        1.26431630       10.25641200
C        2.19703260        9.32895430        2.28028800
C        3.11688420       10.20259300        3.09518680
C        2.19395380        0.38640416        4.04255220
C        3.07206290        1.41339300        4.91440940
C        4.03054380        9.31952790        3.99869810
C        4.84463890       10.25869300        4.87498930
C        3.95467300        0.43309300        2.20251670
C        4.85427870        1.23790260        3.00567120
C        2.20468970        9.29736970        5.84959130
C        3.13695490       10.10701400        6.61593970
C        2.22850410        0.37315842        7.48155160
C        3.12935200        1.28522910        8.35641480
C        4.05822760        9.27723360        7.54884940
C        4.82393830       10.15720500        8.38575900
C        3.93228960        0.44786637        5.68838190
C        4.87722260        1.28551830        6.67041850
C        2.18375320        2.17575700        9.24348410
C        3.06964140        3.11457720       10.19493600
C        2.17329400        4.01538350        0.39672715
C        3.09367080        4.85080060        1.27301690
C        3.98142450        2.20307290        0.45675488
C        4.94121130        3.12757920        1.33262170
C        4.00794200        3.98993420        9.31028830
C        4.91214970        4.90093160       10.18796800
C        2.28446180        2.22073780        2.18796660
C        3.11583380        3.09825720        3.10168650
C        2.28152210        3.98791910        3.98161600
C        3.13169450        4.87678840        4.88318130
C        4.02866210        2.20158680        3.89580830
C        4.84173860        3.13482210        4.86585150
C        4.02764210        4.01472960        2.22996740
C        4.90170350        4.83325560        3.10305540
C        2.23055630        2.25188270        5.71451830
C        3.11965590        3.07128970        6.69451250
C        2.25980090        3.97342760        7.60215500
C        3.11222050        4.88748650        8.38249760
C        4.02389220        2.13140180        7.57175330
C        4.81380280        3.01644890        8.44406280
C        3.92626820        4.00580090        5.72352080
C        4.86094490        4.93829440        6.66365390
C        2.15188080        5.76695860        9.34444090
C        3.06417720        6.63893890       10.22294900
C        2.21383250        7.44170320        0.50413087
C        3.04834090        8.49763830        1.38485500
C        4.01804440        5.71160310        0.38410217
C        4.86463630        6.62010720        1.28774140
C        4.04790370        7.55283570        9.28878170
C        4.88152500        8.48134080       10.23673500
C        2.21323750        5.75950230        2.20232160
C        3.11661130        6.69608120        3.16142930
C        2.23794410        7.54873440        3.97007020
C        3.12718020        8.30540460        4.93078850
C        3.95463320        5.77528620        4.02809880
C        4.92977730        6.61623770        4.84702490
C        3.98989650        7.52427110        2.17193710
C        4.90355840        8.45483710        3.12704470
C        2.27014670        5.80618300        5.77493680
C        3.09983150        6.69130140        6.66526710
C        2.22466490        7.51162480        7.51741010
C        3.14197370        8.39925090        8.43164990
C        4.01587250        5.76695610        7.55149480
C        4.95444250        6.59507230        8.43222640
C        4.01338070        7.60085540        5.78394290
C        4.87169170        8.44706650        6.65756950
C        5.78251630        9.32642650        9.26312760
C        6.62766890       10.19968800       10.18625600
C        5.79747840        0.45448172        0.41348967
C        6.67822440        1.30443360        1.27337400
C        7.55309740        9.35462900        0.38200902
C        8.43089800       10.23065200        1.27877360
C        7.59341310        0.48830352        9.28572950
C        8.41796790        1.35686030       10.16978000
C        5.81289090        9.32964270        2.20296670
C        6.70872140       10.24252600        3.12628260
C        5.79900930        0.43213988        3.95866800
C        6.68313900        1.35914720        4.83169090
C        7.53218100        9.40835490        3.99304590
C        8.45079720       10.24738400        4.91135060
C        7.53849460        0.51648648        2.13072640
C        8.45547930        1.31229180        3.07609390
C        5.76066310        9.34874410        5.78207380
C        6.67231240       10.26098900        6.71322230
C        5.82373110        0.39388776        7.54134340
C        6.70589180        1.33038680        8.48996780
C        7.52277430        9.30420690        7.60862670
C        8.40942900       10.22011600        8.36742830
C        7.55634650        0.49842445        5.77420480
C        8.45681770        1.35720990        6.59432950
C        5.77714670        2.19553500        9.40852060
C        6.64700880        3.04980790       10.20878800
C        5.74674310        3.99496230        0.51228691
C        6.66399620        4.84284790        1.31283970
C        7.54189300        2.22356890        0.42559455
C        8.45728500        3.15201880        1.36224330
C        7.60042180        4.01605480        9.35599940
C        8.49280310        4.90093280       10.21750700
C        5.81606170        2.21960560        2.16799950
C        6.61540040        3.08948900        3.14705190
C        7.50991790        2.26625560        3.98746570
C        8.40584250        3.14050030        4.88864140
C        7.51612120        4.04420460        2.27972110
C        8.40202530        4.91699610        3.12990060
C        5.78434590        2.21048390        5.77609700
C        6.64579710        3.10782260        6.62953450
C        5.69008180        4.01150280        7.54976390
C        6.70964720        4.90285180        8.41141740
C        7.48664970        2.35956440        7.54107750
C        8.38116950        3.13801670        8.45519400
C        7.64115040        3.96760170        5.83819460
C        8.42584970        4.94052910        6.66417440
C        5.87049370        5.77937650        9.39153710
C        6.71777340        6.68918040       10.26553000
C        5.76937630        7.52505680        0.43684429
C        6.65435790        8.51764020        1.31523130
C        7.58199530        5.73565430        0.51378617
C        8.39358400        6.61189750        1.33606940
C        7.62481710        7.57685280        9.32409050
C        8.48134370        8.49236820       10.21416000
C        5.83545870        5.77092950        2.30682130
C        6.66523710        6.66311070        3.10773600
C        5.81254410        7.54314120        4.02263930
C        6.62879550        8.42162470        4.85512760
C        7.58844960        5.83058480        3.91703240
C        8.43312070        6.57479290        4.83228060
C        7.50674440        7.58037350        2.13524210
C        8.45996060        8.43574140        3.04978500
C        5.76747610        5.78004210        5.83387730
C        6.70914330        6.64035960        6.64390070
C        5.75808810        7.49299670        7.57314010
C        6.71145880        8.43137210        8.40943510
C        7.48891750        5.78033040        7.62255900
C        8.46259080        6.59195840        8.51180250
C        7.61862450        7.58330120        5.72816330
C        8.43392160        8.45828860        6.59787200
N        5.65897620        3.91730420        3.87583400
