&CONTROL
calculation = 'scf'
restart_mode = 'from_scratch'
verbosity = 'high'
wf_collect = .true.
pseudo_dir='/home/arpank/pseudopotentials/'
tprnfor = .true.
/
&SYSTEM
ibrav = 0
ecutwfc = 60
tot_charge = -1
nspin = 2
tot_magnetization = 2.0
nbnd = 480
nat = 215
ntyp = 2
input_dft = 'PBE0'
exx_fraction = 0.18
ecutfock = 120
/
&ELECTRONS
conv_thr = 1D-8
diago_full_acc=.true.
mixing_beta = 0.3
/
&IONS
ion_dynamics='bfgs'
ion_positions='default'
/
K_POINTS gamma
ATOMIC_SPECIES
C  12.01099968  C_ONCV_PBE-1.0.upf
N  14.00699997  N_ONCV_PBE-1.0.upf
CELL_PARAMETERS angstrom
    10.65000000      0.00000000      0.00000000
     0.00000000     10.65000000      0.00000000
     0.00000000      0.00000000     10.65000000
ATOMIC_POSITIONS angstrom
C        9.30608010        9.29801010        9.32117930
C       10.24236200       10.18134500       10.23897700
C        9.28814170        0.41917262        0.40883669
C       10.19222900        1.29470600        1.34803650
C        0.46666091        9.34135820        0.48760026
C        1.34276240       10.20741800        1.38117370
C        0.39499283        0.45997591        9.32938630
C        1.22607440        1.35707480       10.14882400
C        9.29315660        9.32168460        2.21452830
C       10.15686800       10.16197700        3.15755900
C        9.34247940        0.46360153        4.04132040
C       10.21480700        1.33894750        4.92065020
C        0.44418112        9.33665850        4.02551750
C        1.33229970       10.26833500        4.86387440
C        0.42449546        0.41113415        2.25101860
C        1.33092370        1.30730050        3.08472480
C        9.26512830        9.32665790        5.71160410
C       10.24346800       10.09284100        6.58114010
C        9.26398640        0.34488757        7.47018270
C       10.19206300        1.38300860        8.43633330
C        0.47952496        9.28145510        7.61339580
C        1.31344770       10.24237800        8.48340840
C        0.46593525        0.46440012        5.77738230
C        1.32187310        1.36963100        6.71460700
C        9.19372350        2.27467140        9.32312040
C       10.13836600        3.11059540       10.24922500
C        9.30868770        4.04353500        0.40652341
C       10.20267300        4.87965450        1.33404260
C        0.44480937        2.24819220        0.36239456
C        1.38578080        3.16904840        1.33390660
C        0.42967752        3.98740760        9.34586000
C        1.33636210        4.92618210       10.17445500
C        9.29542830        2.17336990        2.23559960
C       10.20278500        3.06929870        3.08477300
C        9.24774070        3.99686570        3.92297300
C       10.13702000        4.86182910        4.85206120
C        0.41446531        2.24670410        3.98562510
C        1.22218480        3.11243840        4.79052370
C        0.43282220        3.96323270        2.23271900
C        1.32442140        4.86891350        3.09875870
C        9.25694930        2.20987830        5.82911050
C       10.19416400        3.11626850        6.65839540
C        9.31092430        4.03016920        7.58534300
C       10.28455000        4.89119220        8.35873110
C        0.34801973        2.25984810        7.60625240
C        1.31563430        3.15064340        8.41521640
C        0.40974589        3.94612810        5.81698670
C        1.35282180        4.86969710        6.66920970
C        9.45376310        5.83377940        9.33563330
C       10.28129400        6.65805610       10.24733300
C        9.38104400        7.49130830        0.44053926
C       10.24293400        8.43695200        1.35777670
C        0.42625252        5.75255910        0.37568531
C        1.31202030        6.59994370        1.31615380
C        0.50430697        7.57644750        9.30068590
C        1.36030480        8.38530040       10.18623300
C        9.27911460        5.76799900        2.22363480
C       10.15088000        6.55660490        3.07479860
C        9.31602030        7.61980010        4.04367250
C       10.16291600        8.41531470        4.88243280
C        0.45729890        5.74397060        4.05397200
C        1.30257960        6.66610600        4.89402270
C        0.47822204        7.52564850        2.25780650
C        1.33400980        8.41600330        3.12356640
C        9.29211950        5.77913970        5.77533810
C       10.19612100        6.59081860        6.66153770
C        9.36812650        7.59982510        7.46069240
C       10.22526300        8.44162600        8.43833000
C        0.50438852        5.81335010        7.54727690
C        1.44255180        6.68994290        8.34660650
C        0.38592732        7.56800490        5.85468250
C        1.38200320        8.43908830        6.72197350
C        2.24759210        9.34499660        9.24928620
C        3.10885900       10.22797500       10.21546800
C        2.20140240        0.37435046        0.38989325
C        3.09246730        1.30171430        1.33646830
C        3.95096290        9.34503990        0.47738702
C        4.92255540       10.18737200        1.42630570
C        4.03673970        0.48772086        9.36502920
C        4.88894160        1.33568490       10.19516000
C        2.31714300        9.25372850        2.22339160
C        3.10129580       10.17356400        3.10559490
C        2.16469710        0.33913970        4.02929700
C        3.14509170        1.31661860        4.82380800
C        4.01558880        9.26940890        3.98756000
C        4.85972250       10.22962800        4.86911660
C        4.01006380        0.42723268        2.26406590
C        4.88833750        1.31228490        3.07018300
C        2.23732830        9.34113980        5.77575020
C        3.10511420       10.24836300        6.65585930
C        2.18065810        0.40050723        7.61425280
C        3.09815190        1.30629730        8.52979310
C        3.98339860        9.30962010        7.52966580
C        4.83787340       10.20023400        8.41163850
C        3.99693430        0.44409184        5.80837340
C        4.85085540        1.30134590        6.65335000
C        2.20150440        2.19734140        9.31512660
C        3.13009160        3.19294930       10.22844900
C        2.26774770        3.94846080        0.43045957
C        3.19063320        4.91476120        1.35226290
C        3.97033440        2.21044110        0.36558869
C        4.85176880        3.09833200        1.27221230
C        4.00422260        4.02550580        9.33604630
C        4.86014440        4.80298550       10.17975900
C        2.26301590        2.22202060        2.17264270
C        3.11483330        3.09763810        3.08097210
C        2.20830520        3.99486050        3.95045280
C        3.15445960        4.94169670        4.92178060
C        4.00335110        2.24725120        4.03380940
C        4.87628590        3.07883860        4.83097140
C        4.01975310        3.97094760        2.18329060
C        4.92582650        4.86651380        3.13350150
C        2.19237670        2.18647620        5.67093570
C        3.13510480        3.17097600        6.71616950
C        2.24504370        4.07526540        7.56344680
C        3.12880960        4.85120400        8.42345420
C        4.05583070        2.16161880        7.57394080
C        4.89003460        3.16809260        8.44880890
C        3.97135390        4.00079890        5.78934920
C        4.95178850        4.87120240        6.69751720
C        2.26570540        5.74720140        9.31430560
C        3.08811200        6.55623640       10.20841500
C        2.22956770        7.55416030        0.41456355
C        3.09211560        8.37045710        1.41483990
C        3.94799830        5.75189560        0.41508903
C        4.87197940        6.62552700        1.35979320
C        3.98614130        7.56037250        9.31993940
C        4.86266670        8.41292220       10.17658700
C        2.23112930        5.66567960        2.24312800
C        3.17373020        6.62569350        3.08793770
C        2.25955370        7.52202460        4.00620330
C        3.09919690        8.41681170        4.89530590
C        3.97353910        5.80038750        3.98595300
C        4.90317550        6.69986450        4.90903280
C        4.00717930        7.50644020        2.20399030
C        4.84522290        8.32564460        3.05639900
C        2.23900540        5.83118690        5.82044620
C        3.15614840        6.68334450        6.72423380
C        2.26837330        7.58496570        7.55051670
C        3.08903570        8.45915600        8.44368050
C        4.05760500        5.82339960        7.49456480
C        4.90377220        6.66947640        8.44157970
C        3.99401560        7.54170140        5.69609180
C        4.85415690        8.46512270        6.57293970
C        5.77574720        9.29192270        9.31992530
C        6.59915970       10.23306600       10.17310500
C        5.83560470        0.44435877        0.44863162
C        6.63282520        1.28995550        1.34009030
C        7.50874180        9.33020020        0.46691940
C        8.40997540       10.17866400        1.29145670
C        7.51927740        0.44488636        9.29059450
C        8.34297440        1.28589300       10.15466600
C        5.82328950        9.28287070        2.32783800
C        6.57803190       10.15536200        3.17099600
C        5.82911190        0.45613928        3.98576640
C        6.65493030        1.35903460        4.93124110
C        7.56640590        9.32082100        4.03732760
C        8.39550130       10.21077200        4.87631230
C        7.52910330        0.44495621        2.25882850
C        8.39352420        1.38535960        3.08432210
C        5.75522030        9.34597110        5.76000250
C        6.65276730       10.21882900        6.73633860
C        5.69909190        0.43398780        7.56975600
C        6.56883220        1.31451540        8.41805680
C        7.52073990        9.25899000        7.63152810
C        8.39082240       10.24690600        8.49870100
C        7.51899460        0.42536076        5.82179880
C        8.42194130        1.32878240        6.68907800
C        5.85067130        2.25735560        9.32994850
C        6.68062690        3.08463800       10.21735800
C        5.75046010        4.00263510        0.40880778
C        6.65792240        4.88104090        1.30035860
C        7.52880290        2.25347190        0.38773920
C        8.40477840        3.10165950        1.28425720
C        7.56558730        4.01425410        9.30201850
C        8.47704130        4.94113300       10.14752900
C        5.72228280        2.20853480        2.14871460
C        6.68936150        3.14724090        3.05399890
C        7.52109630        2.24753780        3.99230210
C        8.43870360        3.16954770        4.84712110
C        7.55345960        3.99901700        2.08265500
C        8.43779420        4.88496430        3.10845210
C        5.80589930        2.20229310        5.81027440
C        6.66286170        3.13436130        6.52584800
C        5.74914140        4.07325260        7.55714380
C        6.70788930        4.94162510        8.37508080
C        7.52445300        2.27310550        7.52425190
C        8.47010970        3.15485460        8.47704650
C        7.65454650        3.98611190        5.83427150
C        8.41844030        4.89468480        6.73366050
C        5.74369050        5.80059510        9.27470850
C        6.66881130        6.65236580       10.23906100
C        5.71972370        7.49497730        0.43721435
C        6.63009670        8.43915230        1.31572260
C        7.49003870        5.86792460        0.46588070
C        8.40789170        6.65409580        1.33000290
C        7.59914380        7.58144740        9.35185320
C        8.42426100        8.38646440       10.22634900
C        5.77755640        5.70484320        2.20487850
C        6.66469510        6.63904470        3.08784410
C        5.75917290        7.47946390        3.97772300
C        6.65504530        8.37256350        4.85078540
C        7.67182600        5.79856430        3.88556070
C        8.41396270        6.66271890        4.82524040
C        7.51891190        7.50859160        2.22934860
C        8.48100690        8.42908510        3.09217000
C        5.73640230        5.87047180        5.80334490
C        6.64977480        6.72920410        6.67399520
C        5.80547330        7.57892730        7.57085120
C        6.68212270        8.47685470        8.46997560
C        7.57971950        5.77115040        7.51523690
C        8.47440300        6.69345310        8.41764480
C        7.46844230        7.50049650        5.75431890
C        8.39532420        8.43054150        6.62718050
N        5.70092700        3.84327710        3.92001880
