&CONTROL
calculation = 'scf'
restart_mode = 'from_scratch'
verbosity = 'high'
wf_collect = .true.
pseudo_dir='/home/arpank/pseudopotentials/'
tprnfor = .true.
/
&SYSTEM
ibrav = 0
ecutwfc = 60
tot_charge = -1
nspin = 2
tot_magnetization = 2.0
nbnd = 480
nat = 215
ntyp = 2
input_dft = 'PBE0'
exx_fraction = 0.18
ecutfock = 120
/
&ELECTRONS
conv_thr = 1D-8
diago_full_acc=.true.
mixing_beta = 0.3
/
&IONS
ion_dynamics='bfgs'
ion_positions='default'
/
K_POINTS gamma
ATOMIC_SPECIES
C  12.01099968  C_ONCV_PBE-1.0.upf
N  14.00699997  N_ONCV_PBE-1.0.upf
CELL_PARAMETERS angstrom
    10.65000000      0.00000000      0.00000000
     0.00000000     10.65000000      0.00000000
     0.00000000      0.00000000     10.65000000
ATOMIC_POSITIONS angstrom
C        9.34263970        9.36753760        9.34427500
C       10.20528800       10.18457200       10.18437400
C        9.36954430        0.45074909        0.40584625
C       10.29163500        1.32189000        1.23697920
C        0.47416910        9.31616650        0.39784232
C        1.35622390       10.21971700        1.37102910
C        0.46518318        0.44614559        9.32711150
C        1.33823720        1.36970230       10.25362700
C        9.29732960        9.29366860        2.25891280
C       10.19309900       10.19842600        3.14906060
C        9.34155550        0.43117432        4.02270420
C       10.17517700        1.33039990        4.89605080
C        0.42398622        9.25401670        4.00331850
C        1.32215890       10.16214700        4.90910150
C        0.46978235        0.40269858        2.22450790
C        1.31924050        1.26025090        3.12560020
C        9.26831880        9.32954380        5.83334440
C       10.22074000       10.17948800        6.65534000
C        9.30324000        0.50950442        7.53176360
C       10.17266900        1.39670760        8.49965660
C        0.44985129        9.34022220        7.53745150
C        1.34938250       10.24177500        8.42723120
C        0.44056790        0.40031397        5.78628550
C        1.36569060        1.29078930        6.69977490
C        9.37872870        2.19351440        9.29997560
C       10.18261100        3.09367910       10.23823200
C        9.41093290        3.99402760        0.42280167
C       10.24142800        4.97292260        1.35481300
C        0.46417294        2.27094170        0.37129535
C        1.30807050        3.15312280        1.31252340
C        0.43277035        4.02174430        9.26478020
C        1.32952980        4.86932750       10.18799800
C        9.26125040        2.22768830        2.15794170
C       10.15413700        3.11290080        3.14098010
C        9.33461560        4.07543290        4.01529830
C       10.14809000        4.88506960        4.88764990
C        0.38047500        2.21303440        4.04879540
C        1.37567820        3.12061170        4.89396190
C        0.43349169        4.06422170        2.24040900
C        1.30764290        4.85481740        3.12491400
C        9.26677040        2.17556930        5.77361310
C       10.24023600        3.03023300        6.62435030
C        9.33625440        4.01542010        7.54904080
C       10.23371500        4.92444830        8.42638270
C        0.50526796        2.19287610        7.50052880
C        1.33939200        3.15286350        8.34665160
C        0.48990310        4.01221360        5.72746870
C        1.37334980        4.88682670        6.63155640
C        9.22640960        5.76198810        9.33730160
C       10.20872900        6.65237480       10.17200800
C        9.29230870        7.60524830        0.38055986
C       10.22269100        8.45260660        1.31165790
C        0.40495973        5.80102040        0.41750159
C        1.38410370        6.62974900        1.37383610
C        0.34504821        7.55630190        9.32284130
C        1.30990010        8.44820450       10.22929900
C        9.26645380        5.77594470        2.12861090
C       10.09609600        6.61099910        3.05120340
C        9.25886640        7.55167490        3.96785520
C       10.17280000        8.43362600        4.86434860
C        0.45080734        5.76592780        4.02228140
C        1.35389790        6.63339190        4.90347170
C        0.46631474        7.46746640        2.19542460
C        1.30170000        8.45431590        3.06496880
C        9.27497580        5.83296400        5.76434610
C       10.20003300        6.65645920        6.68263390
C        9.27596910        7.59932510        7.52214520
C       10.11666000        8.46172210        8.38728650
C        0.35764941        5.73500240        7.45431420
C        1.31955580        6.61047730        8.45188420
C        0.45112461        7.57805230        5.73654860
C        1.38111100        8.43598950        6.69131720
C        2.15093990        9.27705310        9.31932850
C        3.10133570       10.15756300       10.21234500
C        2.25493790        0.46557566        0.51588567
C        3.08336630        1.27364770        1.39362130
C        4.02308460        9.39761190        0.47862008
C        4.90753320       10.22466000        1.34219030
C        4.01457540        0.43250089        9.32826230
C        4.89239360        1.32694210       10.19435200
C        2.24766260        9.37117980        2.20758860
C        3.11572640       10.18109700        3.11188180
C        2.24088490        0.36743005        3.99874340
C        3.10308260        1.34818720        4.94226540
C        3.95945430        9.25068070        4.05174860
C        4.89282960       10.11174200        4.88372930
C        4.01727510        0.40801976        2.29463010
C        4.90566520        1.32451300        3.08608300
C        2.30319240        9.36216780        5.71157010
C        3.06223520       10.26153700        6.66710050
C        2.25375910        0.45533391        7.54206610
C        3.14978720        1.31093540        8.46683800
C        4.04908910        9.31929920        7.50173610
C        4.86753980       10.27502800        8.36994530
C        3.92890550        0.46687307        5.76804500
C        4.81410750        1.31931740        6.61399630
C        2.20624230        2.19822980        9.32563050
C        3.08892060        3.08149630       10.26042500
C        2.16847540        3.99719270        0.44187535
C        3.11086400        4.90267220        1.40260000
C        4.02592780        2.21560050        0.53716329
C        4.93028970        3.11036540        1.35341220
C        3.98800910        3.95138940        9.29656760
C        4.83449760        4.88086920       10.21956400
C        2.18783980        2.15890900        2.18345600
C        3.14864530        3.05712830        3.05807740
C        2.32784600        3.97143250        4.03829430
C        3.09692350        4.88239090        4.86101900
C        3.95053840        2.12671650        4.01361330
C        4.88372100        3.05726980        4.79128930
C        3.99802020        3.93063580        2.18197270
C        4.93292460        4.73326370        3.12978700
C        2.19443670        2.25290870        5.73133020
C        3.10273530        3.15040610        6.63193570
C        2.21521710        3.95759820        7.57609660
C        3.12224400        4.93248450        8.43702420
C        4.03340340        2.30101050        7.52268760
C        4.88374810        3.08278030        8.46691500
C        4.07322120        4.04298630        5.74161190
C        4.88601530        4.89413520        6.65039460
C        2.20418140        5.75492310        9.28640130
C        3.05221270        6.68927800       10.16340800
C        2.15282980        7.55119200        0.42577345
C        3.09035890        8.43122160        1.31524860
C        3.97648650        5.79212000        0.37847910
C        4.88858610        6.70682690        1.37676000
C        4.01669210        7.57567530        9.34367340
C        4.93188000        8.53160900       10.22241200
C        2.14709880        5.65749050        2.18693640
C        3.19325880        6.60480530        3.08854780
C        2.17157610        7.51744110        4.06543870
C        3.13801470        8.42052850        4.88412210
C        4.00632570        5.76971980        4.00891020
C        4.98770300        6.61134260        4.93712250
C        4.00982080        7.56933340        2.15288240
C        4.89385870        8.37665670        3.10835160
C        2.25494220        5.74374500        5.80988840
C        3.14512140        6.66542970        6.74290550
C        2.18250010        7.55668330        7.60096820
C        3.10465350        8.50035590        8.43570770
C        3.99641140        5.75133500        7.55388310
C        4.89560410        6.72632940        8.51948050
C        3.94723300        7.49988330        5.77890030
C        4.85207130        8.41077300        6.62267340
C        5.81492400        9.33514430        9.33528080
C        6.68439180       10.24475500       10.15875500
C        5.77833120        0.46639511        0.42326769
C        6.63837400        1.28554700        1.36216070
C        7.61753010        9.33313610        0.36167650
C        8.46184630       10.25229200        1.29611140
C        7.54460230        0.40453845        9.26007920
C        8.47480260        1.33706380       10.13874300
C        5.75957140        9.28187790        2.25943720
C        6.69245360       10.18656100        3.13324530
C        5.77644230        0.41856770        3.96548590
C        6.66611070        1.34940570        4.92776830
C        7.55449550        9.33071570        4.00105550
C        8.43291760       10.19969000        4.97041040
C        7.56552030        0.44424240        2.20414760
C        8.45339690        1.26985710        3.06684960
C        5.71627280        9.25554500        5.77343870
C        6.60398680       10.16183800        6.67526420
C        5.73745510        0.45955134        7.48477790
C        6.69835100        1.35116520        8.43950320
C        7.55399160        9.30431100        7.47907500
C        8.36949190       10.30714000        8.42910720
C        7.61082490        0.49375348        5.81180780
C        8.35879300        1.42317100        6.72738540
C        5.78981740        2.18713610        9.33411300
C        6.69264600        3.20271640       10.14855200
C        5.79947270        4.04281200        0.42105255
C        6.68039470        4.86108520        1.35870080
C        7.57306810        2.28091500        0.46906788
C        8.49072760        3.16888800        1.38362410
C        7.53766420        3.97146170        9.23145040
C        8.45310720        4.84680050       10.21596500
C        5.78570560        2.22956360        2.20898060
C        6.65087350        3.09002270        3.11613670
C        7.52129980        2.24678440        4.01981740
C        8.32889340        3.12480480        4.84418430
C        7.56051730        4.02029770        2.27567350
C        8.44613530        4.90572120        3.11573360
C        5.75416390        2.16003230        5.74100340
C        6.64827520        3.18507760        6.60509250
C        5.77859500        3.93533160        7.54989790
C        6.65191920        4.89131920        8.41347120
C        7.54274430        2.19167900        7.49336200
C        8.47205070        3.09382000        8.43572750
C        7.67260610        3.99836940        5.78111340
C        8.40314500        4.87461510        6.63413810
C        5.75149170        5.77746140        9.41608330
C        6.66018500        6.64346160       10.22401600
C        5.78346600        7.60642050        0.40617242
C        6.60848390        8.45195570        1.33872940
C        7.52508800        5.74637260        0.53333516
C        8.35650380        6.64908840        1.30485630
C        7.45053330        7.60973840        9.28828610
C        8.39649150        8.47891570       10.19526400
C        5.79829210        5.73082780        2.25251980
C        6.58755410        6.60958950        3.12901890
C        5.81179160        7.54560180        4.05238090
C        6.61705360        8.36445720        4.93637650
C        7.66166960        5.88683190        3.92287710
C        8.42802370        6.66295680        4.89349000
C        7.53398560        7.55659050        2.23258660
C        8.36265760        8.45286380        3.11068230
C        5.86813790        5.74187780        5.83757390
C        6.68832630        6.62205850        6.65961840
C        5.75961310        7.54393640        7.55455670
C        6.65246010        8.38730030        8.31705360
C        7.51266550        5.75235240        7.55118690
C        8.39161180        6.64494700        8.44695590
C        7.51221210        7.53585870        5.77700950
C        8.36095880        8.34825730        6.67727880
N        5.67424570        3.87285290        3.86432940
