&CONTROL
calculation = 'scf'
restart_mode = 'from_scratch'
verbosity = 'high'
wf_collect = .true.
pseudo_dir='/home/arpank/pseudopotentials/'
tprnfor = .true.
/
&SYSTEM
ibrav = 0
ecutwfc = 60
tot_charge = -1
nspin = 2
tot_magnetization = 2.0
nbnd = 480
nat = 215
ntyp = 2
input_dft = 'PBE0'
exx_fraction = 0.18
ecutfock = 120
/
&ELECTRONS
conv_thr = 1D-8
diago_full_acc=.true.
mixing_beta = 0.3
/
&IONS
ion_dynamics='bfgs'
ion_positions='default'
/
K_POINTS gamma
ATOMIC_SPECIES
C  12.01099968  C_ONCV_PBE-1.0.upf
N  14.00699997  N_ONCV_PBE-1.0.upf
CELL_PARAMETERS angstrom
    10.65000000      0.00000000      0.00000000
     0.00000000     10.65000000      0.00000000
     0.00000000      0.00000000     10.65000000
ATOMIC_POSITIONS angstrom
C        9.37995530        9.37126850        9.37789960
C       10.25698800       10.26345900       10.28052000
C        9.32680890        0.37282155        0.41430282
C       10.19577300        1.34921620        1.33431480
C        0.42898934        9.34303550        0.43133973
C        1.26079140       10.25307400        1.37458580
C        0.49289325        0.49715461        9.30918040
C        1.29996720        1.34731140       10.30295500
C        9.35627740        9.31868480        2.16908880
C       10.27311500       10.20572600        3.18967250
C        9.38785560        0.47967624        4.06264150
C       10.29309300        1.30619690        4.87289550
C        0.49148775        9.27257050        3.99985520
C        1.29860680       10.19030900        4.90722240
C        0.41485729        0.40242798        2.23656520
C        1.29426220        1.29412920        3.14497430
C        9.33158050        9.26677150        5.74090950
C       10.19253200       10.18314500        6.71066220
C        9.19341710        0.37937018        7.58857820
C       10.28391600        1.30765170        8.39746980
C        0.44985714        9.30813030        7.59579180
C        1.34616420       10.25323000        8.43993300
C        0.44516938        0.47020832        5.80956270
C        1.41313670        1.34421100        6.62054930
C        9.35216130        2.23089350        9.27329300
C       10.23880600        3.08645250       10.21249500
C        9.29752840        3.95191280        0.47443468
C       10.26193100        4.92030830        1.34877350
C        0.44822484        2.25567890        0.51900760
C        1.37205320        3.10591710        1.29093970
C        0.42714833        3.91619210        9.26460060
C        1.30095540        4.85866860       10.16835100
C        9.31988100        2.22236700        2.19859880
C       10.20023200        3.10397660        3.07833230
C        9.28063250        4.01162820        3.92079000
C       10.14976200        4.82054510        4.85820270
C        0.47418648        2.09627100        4.04586620
C        1.30135620        3.07780830        4.83968370
C        0.46317118        4.03298490        2.20789220
C        1.31021840        4.89676370        3.06769640
C        9.28799100        2.22126910        5.76821710
C       10.22799900        3.11385660        6.63031000
C        9.25916400        3.95780530        7.58660460
C       10.20069100        4.90272590        8.39672740
C        0.45455094        2.20997420        7.51078450
C        1.31466170        3.08589550        8.45541770
C        0.41657832        4.00049320        5.80414870
C        1.40773160        4.89429640        6.64162450
C        9.33497500        5.73369180        9.31051030
C       10.23013300        6.68304130       10.21094700
C        9.34533850        7.57643470        0.43314208
C       10.26364200        8.44945480        1.34039600
C        0.41101419        5.83200880        0.44903935
C        1.33396270        6.59071150        1.33925340
C        0.39271586        7.61931040        9.32513180
C        1.34837390        8.43580870       10.24661500
C        9.32826790        5.74933310        2.28986880
C       10.20240100        6.67426850        3.10834250
C        9.31446030        7.61453340        4.03530110
C       10.13699200        8.42519360        4.89701150
C        0.40550420        5.75360830        3.95445710
C        1.36090050        6.68346490        4.88862370
C        0.44590290        7.52394170        2.20597320
C        1.34938140        8.39389740        3.12546570
C        9.26816820        5.74211250        5.74099620
C       10.19091000        6.62825360        6.64120020
C        9.31736020        7.52823400        7.64911710
C       10.27154400        8.45501470        8.39939000
C        0.39999832        5.73367810        7.61079910
C        1.31818440        6.65150070        8.46855120
C        0.38908602        7.55776180        5.77936590
C        1.37195240        8.41406300        6.62036740
C        2.16827070        9.25769100        9.34085860
C        3.13966430       10.22801700       10.24041500
C        2.19095020        0.45376030        0.53269058
C        3.07690130        1.36241500        1.31199890
C        4.01593100        9.30414200        0.44335403
C        4.89483360       10.21143800        1.25849510
C        3.95172290        0.45052662        9.29892990
C        4.83636430        1.30776540       10.17759400
C        2.20121200        9.31800980        2.24201660
C        3.13141610       10.20402000        3.10169610
C        2.22178400        0.41322838        3.99440430
C        3.07597490        1.41888330        4.77826220
C        4.02315720        9.33283220        3.99876080
C        4.91329570       10.21109500        4.90654620
C        3.95916770        0.45830191        2.18930160
C        4.90705520        1.34848220        3.12961560
C        2.17885410        9.31153930        5.71007230
C        3.08208410       10.24837100        6.62917690
C        2.26530050        0.42765433        7.50854720
C        3.09917960        1.28229400        8.48707450
C        3.94226390        9.32395150        7.58751860
C        4.78627270       10.19630000        8.44683750
C        3.97376110        0.43500754        5.70755350
C        4.88855190        1.31091720        6.58938830
C        2.23317000        2.16621680        9.29700820
C        3.14719630        3.12451620       10.06606600
C        2.24554220        4.07306960        0.38535971
C        3.08722980        4.94941310        1.30893310
C        3.96013840        2.24683750        0.36475917
C        4.80866070        3.09279320        1.28563710
C        3.97325530        3.95415970        9.29057810
C        4.88167310        4.86296530       10.21984200
C        2.19942210        2.21292850        2.26796960
C        3.16563710        3.16386250        3.07585890
C        2.23617970        3.97383370        4.01920870
C        3.11492570        4.88145730        4.82663500
C        4.05868290        2.26184570        3.98106070
C        4.94471890        3.15108630        4.85573080
C        3.93627210        4.05805200        2.11127210
C        4.90134990        4.88584590        3.10350550
C        2.23577560        2.22183190        5.76473220
C        3.16401720        3.04503470        6.66033880
C        2.18013920        4.04880710        7.55764750
C        3.15576790        4.86932920        8.45308660
C        4.03952790        2.19658440        7.46237440
C        4.83426440        3.07167840        8.43347440
C        3.96470030        4.06531100        5.75863580
C        4.87403100        4.89799040        6.65676760
C        2.28937050        5.76622380        9.34773960
C        3.12400830        6.72983040       10.19401500
C        2.18092160        7.55563390        0.43106640
C        3.10855450        8.36536390        1.38224530
C        3.96425520        5.83405170        0.39242118
C        4.83452230        6.57771900        1.31878670
C        3.99707630        7.56432740        9.28913770
C        4.90585460        8.40959330       10.23136400
C        2.22250370        5.75957250        2.13990320
C        3.05954740        6.61304710        2.98721110
C        2.21498380        7.53635170        3.97318720
C        3.09134960        8.42857710        4.83870930
C        4.00506450        5.72095890        4.00497370
C        4.84100660        6.74506310        4.90989820
C        3.95002260        7.55106900        2.19797730
C        4.86481290        8.41260450        3.14123720
C        2.28325070        5.74149780        5.77177250
C        3.09326090        6.67521120        6.65103390
C        2.23154200        7.58707160        7.56350250
C        3.06884680        8.39850720        8.47265880
C        3.95530300        5.78627060        7.57891800
C        4.89277470        6.66189770        8.47832710
C        3.99774760        7.57646560        5.71535550
C        4.85265860        8.48610480        6.64947250
C        5.78252160        9.33532090        9.34528150
C        6.69427380       10.18675400       10.24877900
C        5.70603020        0.47434441        0.42257714
C        6.72250720        1.31736340        1.35190830
C        7.56986610        9.25928940        0.47724613
C        8.50776280       10.15453600        1.44192840
C        7.53289090        0.44991529        9.39935750
C        8.46004410        1.42543480       10.15229000
C        5.69917680        9.29036590        2.18891900
C        6.64595030       10.23160100        3.18005480
C        5.84348840        0.43214597        3.94543970
C        6.68456220        1.29277530        4.86755900
C        7.52190830        9.30132210        3.99283110
C        8.39518060       10.22042900        4.93365080
C        7.59169190        0.40131832        2.20725490
C        8.49014850        1.30819060        3.13685660
C        5.74237090        9.33070320        5.78622550
C        6.65038770       10.23909600        6.67842200
C        5.69605040        0.45898315        7.60427930
C        6.56219600        1.21901050        8.44367130
C        7.53139240        9.29773160        7.60568920
C        8.37321220       10.21397400        8.46920220
C        7.52593360        0.46456752        5.78348550
C        8.40324630        1.39113910        6.69430240
C        5.79313630        2.19007370        9.32753090
C        6.61579350        3.17443170       10.13037300
C        5.76602690        3.99872570        0.46050532
C        6.64963410        4.80123350        1.31955260
C        7.60584110        2.30337300        0.50371866
C        8.35469950        3.12845510        1.27421270
C        7.56729120        3.97797110        9.31596840
C        8.48153330        4.85036320       10.21319200
C        5.85582410        2.22553180        2.18513010
C        6.63740020        3.12493240        3.11013780
C        7.55883820        2.23971950        3.99429450
C        8.43661810        3.10628070        4.90288750
C        7.58852270        4.01878830        2.23773080
C        8.43799580        4.88556390        3.05739740
C        5.79428130        2.26784280        5.68247630
C        6.68063860        3.11804900        6.66809150
C        5.78972450        4.02388840        7.53867510
C        6.72511740        4.84985300        8.42249650
C        7.42338470        2.22615900        7.58991640
C        8.33763030        3.10345110        8.49187480
C        7.58095270        3.92648780        5.79519390
C        8.32808030        4.85742610        6.62527360
C        5.70077920        5.80057130        9.28386670
C        6.63390450        6.71242590       10.21550400
C        5.80471650        7.51864200        0.47684074
C        6.66908540        8.41331770        1.38483110
C        7.52962630        5.72919190        0.40241400
C        8.46108930        6.62203040        1.34257590
C        7.60107650        7.50183210        9.29871400
C        8.50266150        8.41516170       10.22527500
C        5.72345840        5.73653030        2.19829920
C        6.65218450        6.57766460        3.14852470
C        5.77961570        7.55336260        3.97875570
C        6.58901370        8.40862670        4.87755160
C        7.69053020        5.78020670        3.88848640
C        8.49945870        6.67195770        4.85250420
C        7.48831050        7.54061240        2.21954790
C        8.52580280        8.38635090        3.11088320
C        5.72409150        5.93745630        5.87542830
C        6.62692500        6.64760840        6.72609860
C        5.76710130        7.55994750        7.57600340
C        6.67680390        8.47285340        8.41817760
C        7.56268020        5.75985090        7.47399620
C        8.40570550        6.64813030        8.44692420
C        7.52795410        7.51313800        5.78863580
C        8.42867520        8.41778960        6.62746040
N        5.72146210        3.91708610        3.86159780
