&CONTROL
calculation = 'scf'
restart_mode = 'from_scratch'
verbosity = 'high'
wf_collect = .true.
pseudo_dir='/home/arpank/pseudopotentials/'
tprnfor = .true.
/
&SYSTEM
ibrav = 0
ecutwfc = 60
tot_charge = -1
nspin = 2
tot_magnetization = 2.0
nbnd = 480
nat = 215
ntyp = 2
input_dft = 'PBE0'
exx_fraction = 0.18
ecutfock = 120
/
&ELECTRONS
conv_thr = 1D-8
diago_full_acc=.true.
mixing_beta = 0.3
/
&IONS
ion_dynamics='bfgs'
ion_positions='default'
/
K_POINTS gamma
ATOMIC_SPECIES
C  12.01099968  C_ONCV_PBE-1.0.upf
N  14.00699997  N_ONCV_PBE-1.0.upf
CELL_PARAMETERS angstrom
    10.65000000      0.00000000      0.00000000
     0.00000000     10.65000000      0.00000000
     0.00000000      0.00000000     10.65000000
ATOMIC_POSITIONS angstrom
C        9.35977040        9.36665760        9.34197790
C       10.21490500       10.14391100       10.21332100
C        9.31033640        0.49389567        0.46671887
C       10.21449200        1.39253940        1.30112680
C        0.45240236        9.30350950        0.40784380
C        1.30979460       10.15268300        1.32824470
C        0.48168617        0.42240870        9.39655780
C        1.38463730        1.35077810       10.16360800
C        9.34789360        9.33082110        2.24698710
C       10.18864400       10.18799600        3.16882560
C        9.22888260        0.45328893        4.04690170
C       10.16556900        1.34077000        4.86204360
C        0.44385987        9.41998050        3.94866250
C        1.22864860       10.18952800        4.91747880
C        0.39220965        0.42308540        2.19881720
C        1.26571900        1.33985910        3.09772550
C        9.33773500        9.35499480        5.75705900
C       10.22098600       10.26544600        6.71829820
C        9.36164470        0.44179323        7.53418360
C       10.22880400        1.27029430        8.43700860
C        0.48457822        9.33658950        7.60376410
C        1.38606390       10.32626000        8.53483670
C        0.46970534        0.46968282        5.72927970
C        1.33864300        1.20519980        6.63344980
C        9.36417130        2.27348140        9.31460900
C       10.26070300        3.13918240       10.27831400
C        9.33446270        3.98837480        0.44515871
C       10.18787200        4.90952260        1.35482400
C        0.42461840        2.20543490        0.47155857
C        1.29806790        3.07369860        1.34383400
C        0.51656828        4.01423010        9.33379030
C        1.33764680        4.90424390       10.21291400
C        9.32782460        2.25376290        2.23124920
C       10.19858600        3.22220110        3.05202660
C        9.25984050        4.02963770        3.98313720
C       10.21471300        4.89180650        4.84324980
C        0.40353236        2.28871490        4.03720400
C        1.31304940        3.16141460        4.89464850
C        0.44653403        4.07944310        2.30217250
C        1.31882590        4.90553530        3.17810350
C        9.31782580        2.28131230        5.78821710
C       10.22389500        3.09217510        6.69750960
C        9.31677330        3.99165530        7.55799910
C       10.23349500        4.89339360        8.48317680
C        0.44272717        2.14423810        7.61709410
C        1.38015450        3.08529370        8.50771500
C        0.45386107        4.02482460        5.81171420
C        1.36566730        4.88456460        6.68896130
C        9.31211280        5.73665220        9.30698130
C       10.16278200        6.66492010       10.14040200
C        9.29945020        7.56091450        0.38365291
C       10.17814300        8.46277650        1.30225800
C        0.41127946        5.77698000        0.43906113
C        1.29985290        6.67664090        1.35635650
C        0.49640647        7.48286320        9.34718370
C        1.31504630        8.38454580       10.19493300
C        9.27357860        5.83674660        2.15094280
C       10.26803600        6.67581480        3.08912640
C        9.33519530        7.61363420        4.01065600
C       10.18554600        8.49511790        4.84552430
C        0.36260159        5.76505050        3.90449830
C        1.35355030        6.64550860        4.86084510
C        0.42274452        7.57378360        2.25379900
C        1.33892560        8.47315520        3.09573690
C        9.34544330        5.75163600        5.76280780
C       10.11993600        6.65748710        6.67346320
C        9.30615180        7.54713230        7.54490360
C       10.20078000        8.42089590        8.48606280
C        0.38497589        5.75386550        7.52902960
C        1.32568340        6.69732350        8.48244050
C        0.42486883        7.55554870        5.81385650
C        1.30915120        8.40071690        6.75387480
C        2.19781670        9.27987630        9.27560590
C        3.12350840       10.24049700       10.28101800
C        2.18711590        0.40850649        0.45872731
C        3.13887670        1.31457780        1.35099340
C        3.97443860        9.29403750        0.44425557
C        4.87803730       10.13577200        1.33290680
C        3.95092110        0.48415253        9.30046810
C        4.87073510        1.25956210       10.22292100
C        2.25632220        9.30559610        2.15165330
C        3.11765250       10.19042000        3.08768840
C        2.26774110        0.48035135        3.96298980
C        3.09768830        1.39078640        4.83149090
C        3.98160180        9.31924390        3.96587250
C        4.85685230       10.12205300        4.94358580
C        4.06028220        0.42067104        2.25107630
C        4.91820710        1.27920390        3.08374460
C        2.16127260        9.29677300        5.79908430
C        3.10112030       10.17917300        6.59032460
C        2.23526160        0.46192036        7.51618680
C        3.10564910        1.39472810        8.41488100
C        3.97158670        9.39764480        7.55549190
C        4.83489690       10.17012000        8.43895230
C        3.92462130        0.45480951        5.80719510
C        4.88772650        1.34713270        6.70090710
C        2.24897460        2.23097050        9.31891430
C        3.13955330        3.11154420       10.20851700
C        2.21149260        4.05372970        0.49113957
C        3.13955360        4.85261880        1.32042680
C        3.98296630        2.19398750        0.39127331
C        4.97948970        3.09448770        1.28089290
C        3.98263290        3.97108110        9.22979100
C        4.90575250        4.85911590       10.23358000
C        2.16432260        2.17086880        2.27082260
C        3.11079030        3.07074900        3.09725010
C        2.20341700        3.93595870        3.99045950
C        3.09854420        4.81366800        4.78838270
C        4.07281020        2.19031580        3.95005230
C        4.89227630        3.02376280        4.91789160
C        3.97301910        3.99453290        2.20085970
C        4.88792480        4.79868960        3.08256920
C        2.22990410        2.20379530        5.73850420
C        3.14412860        3.13089000        6.65213300
C        2.26198380        4.00657650        7.51715230
C        3.12502230        4.85943020        8.50336880
C        3.94341140        2.21031480        7.60704790
C        4.88225300        3.12430040        8.40197750
C        4.04556570        3.98309540        5.71051540
C        4.94981950        4.91959640        6.65196210
C        2.22598240        5.72723000        9.30067480
C        3.05183580        6.64870980       10.14838000
C        2.24578320        7.58847960        0.46176823
C        3.11234520        8.43387010        1.30951200
C        3.98999090        5.73266820        0.37736487
C        4.84042260        6.60086560        1.29455340
C        3.94940840        7.48915290        9.33353500
C        4.91788950        8.39390910       10.20359900
C        2.22938680        5.73414410        2.22648490
C        3.15430890        6.66564750        3.11215240
C        2.14140510        7.52101810        4.04685720
C        3.08090560        8.49239970        4.85254770
C        4.04358490        5.76384380        3.97000740
C        4.86966350        6.63522550        4.83843340
C        4.05101330        7.59208570        2.23161130
C        4.87041540        8.48011500        3.10334920
C        2.24189130        5.76943740        5.80003490
C        3.12933400        6.60533000        6.70061560
C        2.24794300        7.42717990        7.61619710
C        3.09555600        8.40635980        8.45873160
C        3.99724260        5.80089410        7.47719800
C        4.84702440        6.63500860        8.43382630
C        3.97309870        7.50523870        5.80224280
C        4.84451780        8.41532510        6.70241600
C        5.77429330        9.32939230        9.35915880
C        6.56494790       10.28086400       10.15312400
C        5.77738350        0.46958303        0.42005521
C        6.75015200        1.32077920        1.33778640
C        7.58107560        9.38099720        0.44869645
C        8.48263330       10.21823300        1.29643980
C        7.57017350        0.44802578        9.37862290
C        8.44541470        1.29477740       10.16386600
C        5.75250000        9.36780740        2.25546020
C        6.66383260       10.17390600        3.11906930
C        5.74184410        0.46645434        4.00760740
C        6.65261960        1.34459900        4.85456040
C        7.48038550        9.28203910        4.01428280
C        8.40342110       10.19090400        4.88384970
C        7.57021800        0.43304082        2.20599260
C        8.39922490        1.36719270        3.20100740
C        5.72035480        9.26400190        5.76584750
C        6.57775020       10.22273700        6.63850940
C        5.74134150        0.46936851        7.56418690
C        6.66113350        1.35077090        8.43581520
C        7.53519820        9.26048040        7.48739650
C        8.41408610       10.14446300        8.41061140
C        7.51109440        0.40922060        5.79064570
C        8.44201350        1.37007820        6.62019920
C        5.82793450        2.27007180        9.38300650
C        6.72362750        3.11047550       10.24368100
C        5.86863710        4.03428960        0.47311567
C        6.66038920        4.85714480        1.34867300
C        7.53319710        2.21367140        0.45495070
C        8.47114200        3.08288450        1.33838670
C        7.61443100        3.94632010        9.24637260
C        8.45499700        4.87508970       10.17654500
C        5.78818980        2.15108450        2.19305030
C        6.58511090        3.03130550        3.09302540
C        7.50895530        2.23271170        4.03073810
C        8.35169950        3.08818860        4.90174330
C        7.51139020        4.00509290        2.20001650
C        8.40809940        4.89987300        3.07706690
C        5.73176650        2.23538470        5.79465690
C        6.65581100        3.11314300        6.59536060
C        5.71435030        4.02728300        7.56585660
C        6.63606640        4.90668310        8.43420580
C        7.52741560        2.26413470        7.53928860
C        8.39966470        3.11998780        8.29208220
C        7.59715650        3.97412720        5.83390290
C        8.39668560        4.88532570        6.67388530
C        5.76012130        5.77652820        9.21618420
C        6.65631960        6.58858600       10.15709400
C        5.80835970        7.52279290        0.44319237
C        6.67429530        8.42459340        1.37379860
C        7.54018680        5.74104180        0.34843356
C        8.42342440        6.75171840        1.26318670
C        7.50119390        7.47212870        9.29713210
C        8.32750570        8.43401360       10.15165300
C        5.80286410        5.68374780        2.25362680
C        6.69121580        6.67432880        3.10290660
C        5.79987720        7.56848540        3.88873240
C        6.65435030        8.40533750        4.90136910
C        7.63811880        5.97783320        3.92589040
C        8.52556890        6.65616540        4.83937320
C        7.53627960        7.57502750        2.13442730
C        8.43611760        8.42240180        3.10939970
C        5.80306170        5.79124360        5.80452650
C        6.70874590        6.67070120        6.62146890
C        5.73613580        7.57171310        7.54292200
C        6.63234430        8.41701470        8.46626900
C        7.54321050        5.74725150        7.50503610
C        8.43919690        6.60662430        8.45511390
C        7.57250570        7.48044720        5.84365860
C        8.45042860        8.52634500        6.63649700
N        5.68354000        3.83421330        3.98300320
