&CONTROL
calculation = 'scf'
restart_mode = 'from_scratch'
verbosity = 'high'
wf_collect = .true.
pseudo_dir='/home/arpank/pseudopotentials/'
tprnfor = .true.
/
&SYSTEM
ibrav = 0
ecutwfc = 60
tot_charge = -1
nspin = 2
tot_magnetization = 2.0
nbnd = 480
nat = 215
ntyp = 2
input_dft = 'PBE0'
exx_fraction = 0.18
ecutfock = 120
/
&ELECTRONS
conv_thr = 1D-8
diago_full_acc=.true.
mixing_beta = 0.3
/
&IONS
ion_dynamics='bfgs'
ion_positions='default'
/
K_POINTS gamma
ATOMIC_SPECIES
C  12.01099968  C_ONCV_PBE-1.0.upf
N  14.00699997  N_ONCV_PBE-1.0.upf
CELL_PARAMETERS angstrom
    10.65000000      0.00000000      0.00000000
     0.00000000     10.65000000      0.00000000
     0.00000000      0.00000000     10.65000000
ATOMIC_POSITIONS angstrom
C        9.24937540        9.22232060        9.32788980
C       10.19057000       10.13316400       10.26143600
C        9.33415120        0.35365568        0.42463601
C       10.27212600        1.28597720        1.32888170
C        0.42822027        9.30470410        0.50466380
C        1.27544940       10.17258900        1.37894880
C        0.43275074        0.41275892        9.32372970
C        1.36785500        1.30427920       10.19561100
C        9.37126190        9.30238260        2.16388310
C       10.12444900       10.26971100        3.11382040
C        9.32083310        0.48886545        4.00990900
C       10.18452900        1.33490510        4.88081320
C        0.44978928        9.36108890        3.96136970
C        1.36204740       10.25450300        4.88264910
C        0.43610089        0.46869362        2.21970950
C        1.36063880        1.28591930        3.08599700
C        9.28491620        9.27779790        5.79930150
C       10.22476500       10.14665700        6.67308980
C        9.30108650        0.44730715        7.53097170
C       10.24506600        1.36079220        8.43925020
C        0.48416769        9.36465720        7.62775130
C        1.36889600       10.18834500        8.47915720
C        0.47963588        0.39538878        5.72926380
C        1.27959650        1.35116460        6.63492980
C        9.35328120        2.18431230        9.38456770
C       10.22827000        3.08477730       10.16263600
C        9.36520500        4.01054840        0.45191825
C       10.25478400        4.89288970        1.34442290
C        0.50750120        2.13874470        0.42716837
C        1.44079070        3.14864330        1.31489630
C        0.54737390        4.03091970        9.31151940
C        1.37275980        4.89855410       10.17192300
C        9.28359160        2.22433270        2.24679580
C       10.26833200        3.13762900        3.14117600
C        9.34358310        4.05259490        3.99193020
C       10.23715800        4.90612060        4.92449410
C        0.47294584        2.23430730        3.98837860
C        1.30733060        3.07738780        4.89105230
C        0.51146813        3.90430270        2.13817760
C        1.34143830        4.87413820        3.06475000
C        9.34791840        2.22249510        5.79527940
C       10.21818700        3.07876320        6.71078010
C        9.33823630        3.95764450        7.54701130
C       10.19800800        4.90904940        8.49990410
C        0.40341593        2.25971760        7.59457200
C        1.27688260        3.12998210        8.35940660
C        0.46806155        4.01283040        5.79035710
C        1.31494790        4.90252380        6.62065060
C        9.29584250        5.78344350        9.33885700
C       10.21669700        6.64577050       10.27031100
C        9.36315690        7.49486190        0.44821852
C       10.22234300        8.48510940        1.34886830
C        0.45670873        5.70989300        0.43313793
C        1.32894800        6.60604920        1.29307940
C        0.36157384        7.53397050        9.34835150
C        1.28794740        8.37940720       10.21551800
C        9.34932070        5.78789940        2.18786600
C       10.21304600        6.64077960        3.17544890
C        9.40203020        7.57239560        4.02851590
C       10.28544100        8.48412310        4.89197460
C        0.43240707        5.79173920        4.03770510
C        1.29184570        6.72853860        4.85424440
C        0.43525437        7.54521860        2.19203930
C        1.27876170        8.38709500        3.12579880
C        9.30669430        5.74709430        5.83674630
C       10.14192200        6.66030820        6.62566280
C        9.18693390        7.56430550        7.58317470
C       10.10983600        8.42012670        8.39956860
C        0.39261703        5.82060130        7.47603840
C        1.26449300        6.68091440        8.34722870
C        0.40151292        7.55911780        5.79691990
C        1.33637490        8.48728500        6.68473970
C        2.24612860        9.35747940        9.33873810
C        3.14460190       10.24943600       10.20088500
C        2.16449790        0.40593903        0.52038515
C        3.02220910        1.29451010        1.36391610
C        4.01964060        9.38027820        0.39429372
C        4.83126260       10.21818500        1.30088900
C        3.93120570        0.41320322        9.34932640
C        4.81583570        1.31370690       10.26377500
C        2.18075760        9.29238470        2.28897800
C        3.09141330       10.20911200        3.05592300
C        2.13448500        0.39430254        3.99686540
C        3.13977060        1.30000060        4.90189630
C        3.89382630        9.31146750        3.96585890
C        4.92107780       10.18684300        4.89795900
C        3.97198770        0.38905637        2.23902060
C        4.88430750        1.29500290        3.09734080
C        2.19328310        9.40961210        5.76919530
C        3.13115820       10.36726200        6.64911080
C        2.18957300        0.43670555        7.58132570
C        3.07571580        1.27019250        8.41345860
C        3.98910470        9.41347040        7.50360900
C        4.81540430       10.26455500        8.37175310
C        3.99948990        0.49499007        5.79996610
C        4.94883410        1.41420750        6.58944590
C        2.18912190        2.15382470        9.24387660
C        3.11553970        3.00565750       10.16378400
C        2.27198060        4.03029230        0.43170421
C        3.09510360        4.94483900        1.25666720
C        4.01108370        2.22855250        0.50738456
C        4.87600380        3.06869000        1.33935150
C        3.97528620        3.97043020        9.33380640
C        4.77456640        4.89917010       10.18190200
C        2.23431850        2.18844450        2.23002170
C        3.08204930        3.11210640        3.03867390
C        2.21160780        3.99732960        4.00854670
C        3.09147760        4.83799680        4.90381610
C        3.96362950        2.20350820        3.91872340
C        4.85702050        3.12476740        4.85399820
C        4.03422100        4.07508680        2.18573750
C        4.89292550        4.87471410        3.11081450
C        2.20814740        2.18639820        5.81049910
C        3.08775210        3.09622450        6.67426070
C        2.18431670        4.02941330        7.57083930
C        3.09913740        4.90905870        8.40339090
C        3.95676420        2.22936570        7.58753420
C        4.83582470        3.08255280        8.45266420
C        4.03222670        3.97267610        5.78432940
C        4.87328870        4.87137630        6.66162390
C        2.16380260        5.78990680        9.34344870
C        3.02207550        6.63039150       10.18648500
C        2.22886120        7.59509200        0.37600711
C        3.05489750        8.40073390        1.30723640
C        3.93669570        5.78151500        0.40763552
C        4.90660460        6.63971740        1.35951530
C        3.94933190        7.57685040        9.32304540
C        4.87852970        8.46983690       10.14330700
C        2.22942100        5.75369450        2.18087510
C        3.05357210        6.66014110        3.12421660
C        2.24113810        7.53284630        4.02354300
C        3.10934530        8.42876390        4.81759020
C        3.99766650        5.80348230        4.02386850
C        4.92723730        6.67908850        4.89951430
C        3.99127420        7.53544230        2.26187460
C        4.82401600        8.39509980        3.20292290
C        2.21539750        5.79716740        5.69683090
C        3.07842490        6.68635120        6.65108130
C        2.20347140        7.54569490        7.60272600
C        3.10689740        8.37905190        8.49261370
C        4.01233350        5.71661820        7.49202040
C        4.86454750        6.61544050        8.40212900
C        3.98445420        7.64676350        5.78146520
C        4.92543750        8.45398560        6.65334150
C        5.81404990        9.29505740        9.30384780
C        6.60181690       10.13995300       10.19528200
C        5.83227450        0.45919104        0.41097701
C        6.62003480        1.31674160        1.35486630
C        7.55895560        9.26590590        0.43391202
C        8.43140330       10.25495500        1.34097020
C        7.55607420        0.37756605        9.30203030
C        8.38993630        1.36120090       10.17667600
C        5.75424920        9.26863720        2.29783210
C        6.66780670       10.21472900        3.10437260
C        5.79791200        0.44190749        3.98487900
C        6.69720850        1.42873770        4.89447930
C        7.63215350        9.31139320        4.00166980
C        8.46067060       10.16094400        4.89943870
C        7.57112930        0.47160946        2.23018690
C        8.46900270        1.41012830        3.11914350
C        5.85573690        9.24774470        5.75066520
C        6.63817820       10.24636900        6.62785020
C        5.82806590        0.51168667        7.53302710
C        6.60386390        1.34362010        8.40680020
C        7.56612970        9.41042410        7.59548430
C        8.41222710       10.21318300        8.42326730
C        7.57119250        0.50567685        5.80907380
C        8.42173030        1.37997060        6.65655190
C        5.75437560        2.19426820        9.28586030
C        6.68684100        3.06809030       10.11979100
C        5.77082600        4.01623430        0.45196744
C        6.65349680        4.87237080        1.28977690
C        7.58375260        2.21295200        0.43632929
C        8.51748150        3.11429490        1.32627740
C        7.61504520        3.95972990        9.33611000
C        8.42793970        4.88528460       10.25599500
C        5.79260320        2.21191580        2.18725740
C        6.68198740        3.07233810        3.11415320
C        7.54035990        2.29477880        4.00991730
C        8.45017480        3.15560770        4.90599970
C        7.60260950        3.95541640        2.24410390
C        8.36232400        4.86961850        3.11949450
C        5.76852170        2.20350110        5.75718400
C        6.67895800        3.10745170        6.63347870
C        5.77645460        3.97715150        7.58185870
C        6.61609110        4.85408070        8.42597700
C        7.54613310        2.26748560        7.60915800
C        8.49433570        3.10558990        8.44800480
C        7.57650250        3.91445050        5.88704210
C        8.43946360        4.81603340        6.63089340
C        5.80231410        5.76669170        9.30315990
C        6.68151390        6.59526260       10.21598100
C        5.68469430        7.54130640        0.43346568
C        6.64245950        8.43182960        1.39351710
C        7.50339160        5.71334170        0.42214126
C        8.36718460        6.62611370        1.34065540
C        7.57480730        7.54542540        9.24597750
C        8.42055770        8.43550090       10.14181700
C        5.76347000        5.71461460        2.19635090
C        6.68704350        6.60977420        3.13504040
C        5.72717230        7.51949020        3.95245180
C        6.65621540        8.42987240        4.85121460
C        7.60842600        5.82420060        3.93629500
C        8.49256920        6.65222310        4.82563830
C        7.60900090        7.55449750        2.31396660
C        8.46168320        8.42540220        3.09658050
C        5.73722230        5.87102860        5.83356110
C        6.68779900        6.72702030        6.63966430
C        5.80596750        7.54534260        7.46435680
C        6.65572530        8.40739900        8.37587050
C        7.48848370        5.71540580        7.54587990
C        8.40775140        6.66227630        8.37010310
C        7.63254690        7.51956640        5.73281300
C        8.40221790        8.41935770        6.69813210
N        5.75629290        3.93012560        3.89299930
