&CONTROL
calculation = 'scf'
restart_mode = 'from_scratch'
verbosity = 'high'
wf_collect = .true.
pseudo_dir='/home/arpank/pseudopotentials/'
tprnfor = .true.
/
&SYSTEM
ibrav = 0
ecutwfc = 60
tot_charge = -1
nspin = 2
tot_magnetization = 2.0
nbnd = 480
nat = 215
ntyp = 2
input_dft = 'PBE0'
exx_fraction = 0.18
ecutfock = 120
/
&ELECTRONS
conv_thr = 1D-8
diago_full_acc=.true.
mixing_beta = 0.3
/
&IONS
ion_dynamics='bfgs'
ion_positions='default'
/
K_POINTS gamma
ATOMIC_SPECIES
C  12.01099968  C_ONCV_PBE-1.0.upf
N  14.00699997  N_ONCV_PBE-1.0.upf
CELL_PARAMETERS angstrom
    10.65000000      0.00000000      0.00000000
     0.00000000     10.65000000      0.00000000
     0.00000000      0.00000000     10.65000000
ATOMIC_POSITIONS angstrom
C        9.36759110        9.34590220        9.30358130
C       10.26307900       10.23514700       10.21009300
C        9.35824640        0.49278652        0.44313881
C       10.22910400        1.31916410        1.33881120
C        0.47454407        9.30042780        0.44555527
C        1.33198620       10.14693000        1.29012130
C        0.32420743        0.42649327        9.37991370
C        1.36427420        1.22544350       10.23532300
C        9.31430210        9.34539610        2.25928940
C       10.16851800       10.23904500        3.06678490
C        9.34565640        0.41479276        4.04520700
C       10.17483600        1.35946780        4.83421990
C        0.42202800        9.39476960        3.98954700
C        1.35263880       10.26154100        4.85979940
C        0.36930918        0.41861083        2.21806720
C        1.32336480        1.37029620        3.09006840
C        9.31191670        9.27599200        5.83595780
C       10.20240900       10.22580600        6.71919270
C        9.27631610        0.46091415        7.53238440
C       10.27895300        1.38706850        8.41361020
C        0.45342010        9.29935200        7.57871500
C        1.33993820       10.21282200        8.50707840
C        0.44516968        0.44673176        5.78673770
C        1.35126430        1.33694450        6.57983620
C        9.31443180        2.16969640        9.30571320
C       10.17536100        3.09038940       10.21747000
C        9.32040340        3.97358720        0.41880156
C       10.21995100        4.91015930        1.31018300
C        0.44773014        2.19876420        0.49815563
C        1.25495650        3.11291630        1.34018860
C        0.37822985        4.01095070        9.30314620
C        1.30179060        4.95310040       10.20755900
C        9.29598840        2.20211110        2.21617980
C       10.13160100        3.05540370        3.08880670
C        9.37026540        3.98254080        3.99295920
C       10.18235800        5.01313290        4.87870490
C        0.49705761        2.23612590        3.93919030
C        1.33076840        3.13045440        4.84587800
C        0.37282136        3.98061400        2.10729230
C        1.27992410        4.92187660        3.07362170
C        9.31385630        2.22464390        5.71890420
C       10.19024500        3.09275970        6.56803220
C        9.31519780        3.96355250        7.47281290
C       10.17813700        4.85675760        8.44618290
C        0.46378449        2.21813740        7.49085370
C        1.39153010        3.11615430        8.43105910
C        0.43971792        3.96096820        5.70309860
C        1.27748330        4.92906710        6.64940470
C        9.29778080        5.75489040        9.35124960
C       10.28010400        6.59986930       10.22368500
C        9.36407620        7.56153870        0.48307934
C       10.15575000        8.41944540        1.40168390
C        0.46326203        5.77010660        0.47066026
C        1.34413490        6.67394020        1.37494880
C        0.46237841        7.50409360        9.34538160
C        1.33845980        8.44987940       10.17011400
C        9.34663960        5.80841730        2.28390290
C       10.15788000        6.66810170        3.14689220
C        9.29274880        7.58016550        4.12456580
C       10.21396800        8.53925720        4.87880540
C        0.45769943        5.78854240        4.02152120
C        1.36456940        6.63371740        4.91291200
C        0.42092341        7.53067790        2.25533830
C        1.36686430        8.44640250        3.16304670
C        9.27819510        5.85586590        5.76453540
C       10.21142200        6.68707540        6.65427240
C        9.31650330        7.51402710        7.53677890
C       10.19324300        8.41512060        8.45933340
C        0.38970167        5.73844340        7.53477530
C        1.33437870        6.60984960        8.44266580
C        0.39408315        7.58288020        5.73511220
C        1.40149000        8.43957350        6.70961200
C        2.20629410        9.31847630        9.31778400
C        3.09958800       10.17037700       10.21187700
C        2.23263590        0.48648034        0.47911161
C        3.10703060        1.29198050        1.29491670
C        4.06450320        9.35210920        0.49692486
C        4.87368150       10.18848200        1.33675230
C        4.04704940        0.40026463        9.23537750
C        4.91758000        1.28042480       10.21620900
C        2.16069200        9.27824150        2.17821890
C        3.12204710       10.19005200        3.06775260
C        2.21644380        0.46985247        3.97722250
C        3.19409760        1.44381140        4.85152320
C        3.98915780        9.32740630        4.00718900
C        4.95416820       10.19564400        4.85534960
C        3.99271370        0.41144749        2.22906780
C        4.83979890        1.26305100        3.05483100
C        2.18403400        9.36411810        5.73116340
C        3.17338090       10.24834500        6.66648010
C        2.24306550        0.40603550        7.57730870
C        3.16549920        1.27046880        8.46621240
C        4.05264560        9.33365140        7.55119580
C        4.94522180       10.25544700        8.38880210
C        4.01906620        0.49037042        5.76132480
C        4.84693810        1.41213550        6.58794700
C        2.25804240        2.18874300        9.31439460
C        3.04313120        3.00921570       10.18104900
C        2.27315020        3.95644640        0.38879878
C        3.09106660        4.86833230        1.31481170
C        3.99517750        2.23438150        0.41886364
C        4.91343130        3.13438360        1.32000120
C        3.96510520        3.99837780        9.31141590
C        4.91734870        4.79992560       10.22111600
C        2.18623230        2.26726700        2.21809580
C        3.06706740        3.14372420        3.10090870
C        2.15364600        3.98215970        3.99552150
C        3.14985990        4.84718470        4.84911730
C        3.97203150        2.19745440        3.90184230
C        4.99373540        3.12128010        4.77225560
C        3.92426130        3.96201510        2.26353870
C        4.95511630        4.84474570        3.13728780
C        2.23393980        2.31820590        5.74537300
C        3.13952760        3.13244580        6.65533210
C        2.23941650        3.98651170        7.54254930
C        3.10506840        4.88913040        8.49343000
C        3.96425270        2.25434320        7.49302100
C        4.84965150        3.12987140        8.47117280
C        4.04477640        3.95845890        5.76409970
C        4.88142350        4.88248090        6.60860250
C        2.18763830        5.79649560        9.31653420
C        3.08955880        6.67340750       10.21508100
C        2.21960130        7.62150960        0.46103424
C        3.12663470        8.38246770        1.31236550
C        4.00577450        5.72516230        0.47244402
C        4.87122360        6.63859850        1.35711850
C        3.98852600        7.55459940        9.34426890
C        4.92621090        8.46278980       10.17730600
C        2.18143410        5.79026620        2.20802920
C        3.12019710        6.61107100        3.07675600
C        2.20081310        7.52894910        3.98121190
C        3.11728150        8.52004510        4.88997560
C        4.03654490        5.77386430        3.96088570
C        4.84776830        6.63905590        4.86537540
C        3.91565530        7.53743240        2.26026760
C        4.84940070        8.37982310        3.08258060
C        2.17873700        5.82603780        5.80641730
C        3.16269060        6.62720700        6.66288850
C        2.25529280        7.53024510        7.62299970
C        3.17002690        8.35059970        8.48224180
C        3.99825710        5.75868960        7.55227770
C        4.90076370        6.64382530        8.39453460
C        4.00096990        7.48804110        5.76466550
C        4.87232130        8.43142430        6.68585800
C        5.77045730        9.32524810        9.26304020
C        6.63817500       10.20771400       10.15782500
C        5.86037660        0.40857832        0.41279143
C        6.63690830        1.25754790        1.31124660
C        7.48859970        9.34011010        0.39430010
C        8.44024440       10.24222500        1.35945370
C        7.49629290        0.42202189        9.30571620
C        8.54066180        1.33164110       10.26060800
C        5.71908730        9.34790700        2.16948930
C        6.64001180       10.29489200        3.20880130
C        5.75260150        0.39761380        3.96966800
C        6.64405450        1.29454910        4.86588810
C        7.53711000        9.32727580        4.10503370
C        8.39103400       10.17848500        4.95388710
C        7.55630570        0.37634815        2.20320950
C        8.42666190        1.29586290        3.12610150
C        5.76834720        9.29346130        5.74337530
C        6.66742410       10.19514100        6.70221440
C        5.74327930        0.47344459        7.47255640
C        6.60810150        1.32369500        8.39496590
C        7.57749330        9.36395170        7.52646020
C        8.40200040       10.18918200        8.44033910
C        7.53535330        0.47024962        5.83628820
C        8.42502650        1.32946120        6.71486050
C        5.68241000        2.26038900        9.25793470
C        6.63623730        3.09546570       10.17716500
C        5.86246260        4.05678510        0.43623494
C        6.69071790        4.89876030        1.34141610
C        7.57790990        2.18816350        0.49232221
C        8.39273440        3.07885350        1.34196190
C        7.53323180        3.93805300        9.32156920
C        8.45431580        4.82300710       10.19974000
C        5.77139210        2.13107350        2.23691870
C        6.67200130        3.13973440        3.01474730
C        7.55595140        2.24353200        3.98149700
C        8.46430470        3.20055640        4.87141590
C        7.57458820        4.02792660        2.13446590
C        8.43338210        4.85167420        3.22319570
C        5.80687140        2.21306480        5.65788730
C        6.66267440        3.09918050        6.67417230
C        5.76786090        3.99174330        7.52623190
C        6.63381150        4.88336710        8.48871630
C        7.53969400        2.15242020        7.55751590
C        8.44077990        3.09837920        8.47173960
C        7.55940710        4.02910800        5.83747350
C        8.31553300        4.92995690        6.65876060
C        5.76775130        5.77395800        9.30411320
C        6.68207790        6.63465190       10.22951100
C        5.79774460        7.65558550        0.44748034
C        6.69239240        8.49465000        1.39306970
C        7.56524520        5.78984330        0.44652864
C        8.42035380        6.58030630        1.39975530
C        7.61458330        7.54337480        9.35832350
C        8.44306270        8.40082180       10.25106400
C        5.71588760        5.77571810        2.27242050
C        6.59433290        6.64265720        3.08245740
C        5.78382570        7.46737860        3.94954390
C        6.65031400        8.42780380        4.94536270
C        7.54108210        5.78870020        3.98335150
C        8.35240400        6.67511370        4.89929940
C        7.53290650        7.58793900        2.21776570
C        8.43940070        8.45208630        3.17466350
C        5.74868130        5.81165100        5.88548950
C        6.63803150        6.67670690        6.63371840
C        5.78172390        7.49941900        7.55597620
C        6.62426610        8.37313920        8.42315580
C        7.55849670        5.69690070        7.51743280
C        8.41699420        6.65818350        8.41276170
C        7.44402610        7.54745590        5.72669390
C        8.38900610        8.41982710        6.60877090
N        5.72683680        3.86772870        3.80628860
