&CONTROL
calculation = 'scf'
restart_mode = 'from_scratch'
verbosity = 'high'
wf_collect = .true.
pseudo_dir='/home/arpank/pseudopotentials/'
tprnfor = .true.
/
&SYSTEM
ibrav = 0
ecutwfc = 60
tot_charge = -1
nspin = 2
tot_magnetization = 2.0
nbnd = 480
nat = 215
ntyp = 2
input_dft = 'PBE0'
exx_fraction = 0.18
ecutfock = 120
/
&ELECTRONS
conv_thr = 1D-8
diago_full_acc=.true.
mixing_beta = 0.3
/
&IONS
ion_dynamics='bfgs'
ion_positions='default'
/
K_POINTS gamma
ATOMIC_SPECIES
C  12.01099968  C_ONCV_PBE-1.0.upf
N  14.00699997  N_ONCV_PBE-1.0.upf
CELL_PARAMETERS angstrom
    10.65000000      0.00000000      0.00000000
     0.00000000     10.65000000      0.00000000
     0.00000000      0.00000000     10.65000000
ATOMIC_POSITIONS angstrom
C        9.36785830        9.23859300        9.26311490
C       10.20249900       10.16972500       10.18504300
C        9.31612910        0.39962879        0.44277041
C       10.23682600        1.34310180        1.31653900
C        0.38513110        9.40563010        0.48132626
C        1.35255020       10.33770000        1.38237840
C        0.37080732        0.42018616        9.34628270
C        1.37466330        1.34558300       10.27722800
C        9.37327500        9.31439150        2.23625060
C       10.17587300       10.20375200        3.07130200
C        9.32037880        0.44556289        3.99350020
C       10.23412400        1.31236660        4.84082130
C        0.55243799        9.28590330        3.97723570
C        1.36939530       10.16929300        4.88649400
C        0.46770581        0.44496295        2.31032570
C        1.37290850        1.39728590        3.09405520
C        9.32602570        9.35023160        5.77907300
C       10.24909200       10.23820100        6.63784390
C        9.29494320        0.44554610        7.54851430
C       10.15856000        1.28417440        8.40083480
C        0.36944398        9.35844120        7.54468460
C        1.39076210       10.20383500        8.46714730
C        0.53253047        0.38492159        5.74286680
C        1.39647740        1.42136620        6.63097680
C        9.28482980        2.15105900        9.37752380
C       10.18445700        3.01004470       10.22202200
C        9.31199220        4.05368670        0.42257967
C       10.18569000        4.87019080        1.31934910
C        0.46069815        2.15774980        0.43441590
C        1.31599820        3.13438390        1.38314810
C        0.44612490        3.91333700        9.32066700
C        1.36377100        4.81431800       10.21351700
C        9.33401920        2.27686940        2.22627180
C       10.21323400        3.10100120        3.13774520
C        9.32849770        3.99479280        4.06684310
C       10.14980400        4.87288760        4.93571590
C        0.45528305        2.20542460        4.02293810
C        1.34524490        3.20651610        4.89525140
C        0.40824376        3.92508970        2.23631090
C        1.32091420        4.83905760        3.12442730
C        9.24800840        2.26556260        5.74432500
C       10.15379700        3.10283800        6.53822950
C        9.33520940        4.02355340        7.51229230
C       10.23428500        4.91831000        8.44761080
C        0.45334539        2.26455050        7.51522590
C        1.38367780        3.15345060        8.34937380
C        0.41707228        3.92644550        5.78859920
C        1.34523900        4.88172380        6.70402730
C        9.33282040        5.72746670        9.39909780
C       10.15573900        6.55324830       10.24421300
C        9.32786440        7.49977550        0.44575123
C       10.23543400        8.41440350        1.32725940
C        0.44613371        5.71009780        0.47997841
C        1.37079100        6.61636000        1.29275750
C        0.45840486        7.62934900        9.39079040
C        1.31548380        8.50543800       10.25922000
C        9.25998450        5.80417050        2.22854790
C       10.18543100        6.73185240        3.13085530
C        9.27795510        7.56807250        3.96290380
C       10.17988800        8.51754250        4.88589380
C        0.44613618        5.79455430        3.98263350
C        1.28663860        6.64678890        4.90529760
C        0.42839120        7.55017520        2.17241100
C        1.38326860        8.36936710        3.10216440
C        9.27831600        5.80292230        5.83810550
C       10.24426700        6.68358460        6.67605630
C        9.30139130        7.60274960        7.55388290
C       10.24313600        8.40385600        8.43180940
C        0.42519092        5.71103210        7.60240150
C        1.38414100        6.63844080        8.44133510
C        0.41401187        7.56091710        5.79861100
C        1.34205590        8.43733810        6.69021870
C        2.24801600        9.34450970        9.32644950
C        3.11421340       10.25948000       10.20777300
C        2.20203750        0.48937337        0.42768146
C        3.11780820        1.39381080        1.28199740
C        3.96738950        9.29884040        0.44740089
C        4.90568740       10.25210600        1.40442280
C        4.04162330        0.38319906        9.30650670
C        4.94756250        1.21429580       10.08910900
C        2.18367360        9.29937290        2.18776270
C        3.06523380       10.20225300        3.13581670
C        2.24260130        0.45170127        3.93202660
C        3.09056450        1.31034740        4.87530230
C        3.97964610        9.29941030        3.98816260
C        4.81231060       10.14731200        4.87758370
C        3.99229060        0.38161344        2.24217720
C        4.89932170        1.29961200        3.10410730
C        2.25965630        9.34821190        5.81979230
C        3.12896710       10.28560400        6.65551090
C        2.27231500        0.48290439        7.49957770
C        3.12637850        1.30339610        8.43983800
C        3.98713660        9.27138420        7.51847670
C        4.89277710       10.15706500        8.42357560
C        3.99475880        0.46627492        5.78734230
C        4.91323090        1.36996960        6.61733380
C        2.19335710        2.23143140        9.31371850
C        3.13255540        3.10645150       10.19125200
C        2.21425940        3.97697590        0.42076600
C        3.10534030        4.89174360        1.33662440
C        4.00855870        2.16452220        0.34332974
C        4.89116140        3.01748330        1.28925730
C        3.97162220        4.01229560        9.32909460
C        4.83671100        4.76203960       10.13828100
C        2.22295700        2.24533330        2.17253820
C        3.08405010        3.08039810        3.11421220
C        2.21719780        4.00505370        4.01346420
C        3.11108980        4.86342090        4.82067340
C        3.99233770        2.22094350        4.01422290
C        4.89491620        3.13560770        4.76356360
C        3.94744710        3.98769150        2.15148090
C        4.84828020        4.88921550        3.12878310
C        2.27622450        2.26277460        5.73601880
C        3.10202900        3.14348150        6.58679060
C        2.26646800        4.04498160        7.55025340
C        3.10146960        4.89789190        8.41052170
C        4.01776260        2.21392500        7.48685060
C        4.86189610        3.09391930        8.39869920
C        4.02791160        4.01562210        5.64651060
C        4.85690050        4.88442260        6.61351200
C        2.27952990        5.78263090        9.33598360
C        3.15659620        6.63860960       10.20893600
C        2.30776610        7.52338790        0.48231295
C        3.13539480        8.42147690        1.26672180
C        4.01218150        5.78362880        0.39845826
C        4.88350710        6.59757390        1.38424960
C        4.01304510        7.51672910        9.40022560
C        4.87442050        8.42586170       10.27255600
C        2.21698500        5.81419420        2.18696450
C        3.07045820        6.65975910        3.06708400
C        2.24290290        7.49431800        4.00182970
C        3.03994180        8.43122610        4.88318980
C        4.04121320        5.80269410        3.99726680
C        4.92871770        6.69845760        4.92388410
C        4.09453350        7.54552570        2.20618740
C        4.80252640        8.44643640        3.09149040
C        2.18667520        5.80903210        5.74519880
C        3.11469910        6.70818830        6.59269330
C        2.25169720        7.43354380        7.54622450
C        3.14162520        8.46038950        8.44319500
C        3.96648730        5.84374740        7.54439500
C        4.93379510        6.68956410        8.43945680
C        3.91075010        7.59491220        5.81618110
C        4.87025280        8.40451810        6.68745220
C        5.80813810        9.25426250        9.44034560
C        6.70879930       10.18471900       10.24696500
C        5.76203200        0.33366119        0.44161783
C        6.65460970        1.30738610        1.28732870
C        7.56931720        9.36504020        0.41704461
C        8.42554180       10.19839200        1.35012630
C        7.54181320        0.42124005        9.34574610
C        8.48248360        1.35706720       10.22473300
C        5.74622110        9.31257960        2.21519920
C        6.63447880       10.26846800        3.11400950
C        5.78821420        0.43317123        3.96065270
C        6.63267060        1.26685010        4.86669610
C        7.50024090        9.35315750        3.96149100
C        8.48012360       10.23899000        4.89856730
C        7.58385650        0.41250517        2.19860590
C        8.41045710        1.31438450        3.12390980
C        5.76233990        9.24953080        5.74935350
C        6.58223790       10.19496500        6.61243700
C        5.77726850        0.45500302        7.50264300
C        6.63452340        1.27540010        8.42976870
C        7.49444830        9.34083660        7.60848160
C        8.39329700       10.18011400        8.46762820
C        7.52710030        0.42331510        5.79105130
C        8.40281710        1.31496940        6.56464050
C        5.76314360        2.15459980        9.25913900
C        6.63635360        3.10877420       10.12898100
C        5.80013010        3.99977270        0.40067244
C        6.66082690        4.89384640        1.34370300
C        7.52507190        2.19659360        0.49364197
C        8.46331520        3.16758740        1.36212690
C        7.53908570        4.01149300        9.26463920
C        8.40893210        4.93169760       10.21642200
C        5.72863700        2.14036570        2.19575020
C        6.58868020        3.11293070        3.10367050
C        7.57884090        2.31461340        4.02030070
C        8.42018090        3.13367340        4.92390570
C        7.52598720        3.95155790        2.19783000
C        8.34833020        4.89562360        3.19398200
C        5.79608050        2.25234960        5.69094290
C        6.65724350        3.09973670        6.65509560
C        5.77693050        3.92688170        7.48884420
C        6.67389720        4.95473030        8.44478870
C        7.56463870        2.13222050        7.59118710
C        8.34856560        3.10353900        8.40837420
C        7.61948070        3.94411540        5.81065050
C        8.38718260        4.88668860        6.62597170
C        5.75509290        5.75352050        9.34655250
C        6.58520410        6.64906080       10.28495200
C        5.79660820        7.54471310        0.51868485
C        6.67870030        8.56088800        1.38848990
C        7.53472060        5.77972720        0.46403930
C        8.39849410        6.66412080        1.30557070
C        7.55345170        7.49823200        9.32185600
C        8.43348050        8.41563520       10.19014600
C        5.77843780        5.68609800        2.24308300
C        6.61597730        6.67324760        3.13340800
C        5.81427790        7.54270840        3.99795390
C        6.68115770        8.43983610        4.91977420
C        7.58214530        5.96376620        4.02211360
C        8.41903560        6.60831330        4.90894140
C        7.49797060        7.54875670        2.23905020
C        8.36101120        8.46768220        3.15099980
C        5.73835820        5.83548530        5.88147900
C        6.64031300        6.72023880        6.67300440
C        5.77988010        7.60319040        7.58727720
C        6.63232500        8.43831570        8.47272430
C        7.60119600        5.70354290        7.49796440
C        8.43123600        6.72632190        8.41812620
C        7.47347850        7.54834640        5.75944940
C        8.40675700        8.44689150        6.62467140
N        5.61408840        3.88468850        3.81726570
