&CONTROL
calculation = 'scf'
restart_mode = 'from_scratch'
verbosity = 'high'
wf_collect = .true.
pseudo_dir='/home/arpank/pseudopotentials/'
tprnfor = .true.
/
&SYSTEM
ibrav = 0
ecutwfc = 60
tot_charge = -1
nspin = 2
tot_magnetization = 2.0
nbnd = 480
nat = 215
ntyp = 2
input_dft = 'PBE0'
exx_fraction = 0.18
ecutfock = 120
/
&ELECTRONS
conv_thr = 1D-8
diago_full_acc=.true.
mixing_beta = 0.3
/
&IONS
ion_dynamics='bfgs'
ion_positions='default'
/
K_POINTS gamma
ATOMIC_SPECIES
C  12.01099968  C_ONCV_PBE-1.0.upf
N  14.00699997  N_ONCV_PBE-1.0.upf
CELL_PARAMETERS angstrom
    10.65000000      0.00000000      0.00000000
     0.00000000     10.65000000      0.00000000
     0.00000000      0.00000000     10.65000000
ATOMIC_POSITIONS angstrom
C        9.31532750        9.33543980        9.31442350
C       10.19182700       10.24241600       10.24698800
C        9.22894370        0.45104858        0.48733525
C       10.17831700        1.34331000        1.28029340
C        0.46214139        9.33580440        0.45900500
C        1.27158820       10.17479400        1.28177540
C        0.45249668        0.45531878        9.30874320
C        1.30199960        1.41074430       10.19131200
C        9.27791670        9.28123970        2.20222210
C       10.21578800       10.20375400        3.10632500
C        9.39323210        0.41236977        4.00356230
C       10.18266000        1.31203300        4.90632730
C        0.51546497        9.29857870        3.96855060
C        1.33335920       10.22528700        4.88776690
C        0.42782319        0.41585042        2.18237650
C        1.30892790        1.34714940        3.10786570
C        9.36078650        9.33142120        5.83863530
C       10.22118700       10.14780900        6.67706730
C        9.27770410        0.49681596        7.59239730
C       10.16261200        1.26378190        8.48104590
C        0.43822974        9.24321840        7.58645010
C        1.31837760       10.21119600        8.43232110
C        0.44302636        0.42279662        5.75646810
C        1.31813020        1.42739630        6.70344410
C        9.28324420        2.18014950        9.21372260
C       10.16757200        3.12616940       10.11861800
C        9.30254490        3.99913410        0.44566790
C       10.27210200        4.90643520        1.24830030
C        0.37205664        2.22899910        0.40883268
C        1.37410710        3.15777970        1.32205280
C        0.45466239        4.03065270        9.35852490
C        1.31215630        4.85375740       10.23955000
C        9.29370390        2.21524100        2.25242060
C       10.26799400        3.16298920        3.15421560
C        9.29208870        4.07947280        4.09076290
C       10.26424100        4.98009220        4.90549470
C        0.38549354        2.23263590        3.98301230
C        1.36448420        3.15000230        4.79327170
C        0.46266983        3.92937570        2.20370890
C        1.34133270        4.91072060        3.05618150
C        9.34845620        2.29217380        5.77669150
C       10.19514500        3.09654520        6.60467520
C        9.35760930        3.98818990        7.52869170
C       10.20647200        4.85910280        8.38142870
C        0.33239955        2.21139270        7.56492350
C        1.33897740        3.17407330        8.46064750
C        0.51564466        3.97534460        5.78727890
C        1.36356370        4.84954980        6.62367260
C        9.23684990        5.75149500        9.27702460
C       10.19062100        6.63872620       10.16180600
C        9.31218430        7.57304190        0.37732900
C       10.22352400        8.44121500        1.38383600
C        0.45820031        5.73417070        0.43911454
C        1.32025530        6.66569670        1.36015570
C        0.42597218        7.54550140        9.30168760
C        1.28478620        8.40073850       10.25546700
C        9.27125950        5.71279120        2.17439900
C       10.13546100        6.57679320        3.07850770
C        9.26973860        7.48110210        4.00043860
C       10.25432200        8.36729440        4.92765770
C        0.45199142        5.73853790        4.03484220
C        1.30036540        6.58138710        4.87963480
C        0.48577481        7.51218290        2.18973540
C        1.36691490        8.37968670        3.05832320
C        9.38757980        5.86684780        5.78898180
C       10.23124000        6.60791290        6.65964000
C        9.37162160        7.55118110        7.57688460
C       10.21698000        8.50523620        8.46622070
C        0.45995966        5.76095060        7.54115790
C        1.30101760        6.68389320        8.42471500
C        0.47553160        7.53284570        5.80312270
C        1.34142380        8.38947130        6.72644150
C        2.18347260        9.35335490        9.39899110
C        3.13445420       10.21617700       10.24140200
C        2.23630210        0.38351676        0.42922815
C        3.15142940        1.23667600        1.39241510
C        4.03180110        9.29928040        0.46637430
C        4.90247110       10.24800600        1.34720400
C        4.01099440        0.49258036        9.36427230
C        4.83344300        1.43122080       10.20238300
C        2.24783210        9.22932500        2.18116030
C        3.03994180       10.17934300        3.11184840
C        2.22622060        0.42059894        4.00951910
C        3.08492440        1.27802010        4.89446600
C        3.91771340        9.29432340        3.99528160
C        4.82947480       10.23290500        4.82600220
C        4.04217040        0.39633544        2.17551330
C        4.92088170        1.26602910        3.15879820
C        2.22285950        9.32672730        5.83042610
C        3.10116620       10.21682700        6.72077180
C        2.26547320        0.50260162        7.54260300
C        3.13548560        1.35851340        8.39334220
C        4.02102630        9.25808560        7.58082050
C        4.86544070       10.23703700        8.49386230
C        4.07244960        0.51012148        5.70663980
C        4.90347090        1.40462670        6.63948070
C        2.23296360        2.24604200        9.34527950
C        3.10030540        3.11777310       10.21778400
C        2.14521960        4.00836830        0.45575526
C        3.07864120        4.88156210        1.29917230
C        3.95167070        2.24842810        0.43107760
C        4.89131120        3.05679850        1.31416500
C        3.93651330        4.01933140        9.25635940
C        4.87931630        4.88227900       10.15491800
C        2.14972820        2.17186220        2.20385820
C        3.08013990        3.07441470        3.05445760
C        2.32711280        3.92890330        4.01575280
C        3.15261710        4.83912900        4.94985080
C        3.92132150        2.12615090        4.02086520
C        4.82493520        3.07061600        4.82169400
C        3.95051000        3.96814790        2.17316390
C        4.90225910        4.82067050        3.18308650
C        2.22457090        2.20343340        5.81000400
C        3.09171910        3.04307260        6.66076120
C        2.17800050        3.96765560        7.57920700
C        3.12914130        4.95727000        8.41608650
C        3.96448920        2.20002130        7.59284130
C        4.86543080        3.03315400        8.35420240
C        4.01619010        4.00238500        5.68996520
C        4.89313340        4.94800200        6.62823680
C        2.16709670        5.70856050        9.35670510
C        3.10768850        6.71053840       10.19620400
C        2.24294340        7.56879350        0.38959502
C        3.15235950        8.43016040        1.28692110
C        4.00424570        5.73291000        0.42175371
C        4.93366540        6.65164120        1.30565240
C        3.97707260        7.49448390        9.38912780
C        4.91763150        8.46354230       10.23853600
C        2.21163850        5.72439630        2.18641630
C        3.12064870        6.62546630        3.15377650
C        2.14955000        7.50179520        4.02405140
C        3.12672560        8.44061430        4.94604550
C        3.97601950        5.79136440        3.96780570
C        4.89743190        6.65433690        4.91772620
C        3.97545550        7.49934190        2.25696600
C        4.87820440        8.39071490        3.12054230
C        2.23723510        5.78070540        5.77098970
C        3.07008280        6.67060310        6.66920560
C        2.16059560        7.59580100        7.54581160
C        3.10879020        8.49561470        8.50666950
C        3.97004260        5.84679380        7.55308960
C        4.93710450        6.65571920        8.40409380
C        4.01180840        7.57511220        5.74981430
C        4.90207800        8.44302280        6.66714360
C        5.79628730        9.31110290        9.27833950
C        6.63346380       10.23093900       10.18201700
C        5.76756600        0.50290881        0.45438339
C        6.66961900        1.37005090        1.32788850
C        7.49955650        9.43523170        0.38485217
C        8.47061400       10.25582700        1.32055410
C        7.52260620        0.50134836        9.32031160
C        8.40150050        1.30714410       10.17981700
C        5.79195120        9.26370940        2.19290620
C        6.69041370       10.16993000        3.11153540
C        5.79089160        0.41796775        3.99144760
C        6.63504770        1.27026020        4.88818630
C        7.56235050        9.29837650        4.05360010
C        8.51531760       10.16863600        4.90096750
C        7.56719010        0.50156076        2.20831670
C        8.48193010        1.30122720        3.16215780
C        5.75872720        9.39942190        5.79095960
C        6.65202620       10.22237100        6.61004440
C        5.82114520        0.40132692        7.51160710
C        6.63337110        1.30842950        8.48011040
C        7.53523440        9.30901060        7.59597660
C        8.42054930       10.19495500        8.46655990
C        7.57290990        0.47669945        5.72794690
C        8.40235660        1.35674430        6.64621010
C        5.81323880        2.18222540        9.37390180
C        6.60587390        3.10938030       10.20284200
C        5.79448090        3.98857490        0.48362607
C        6.52223850        4.91940580        1.32632780
C        7.51551120        2.15315600        0.36821313
C        8.33201460        3.09406320        1.32757020
C        7.52494480        3.98977050        9.28611060
C        8.37236630        4.86554750       10.24443600
C        5.79540330        2.17711850        2.21256090
C        6.62303380        3.02349090        3.08799970
C        7.51632760        2.28227670        4.00034300
C        8.44201980        3.15796770        4.89869690
C        7.44131740        4.04829610        2.20964540
C        8.48436670        4.90718920        3.09960700
C        5.78310070        2.33126550        5.71044020
C        6.67876670        3.19036230        6.64946110
C        5.77309380        3.98318420        7.48378080
C        6.62687040        4.88026370        8.39448150
C        7.44044020        2.21137950        7.53964580
C        8.43372960        2.99913040        8.35658370
C        7.57457390        3.98581810        5.88846930
C        8.41399570        4.95112090        6.70794790
C        5.79548570        5.71826430        9.27459240
C        6.68601350        6.59115810       10.11902800
C        5.83758150        7.51623930        0.46845120
C        6.68279660        8.41739960        1.28674420
C        7.53187060        5.73007170        0.40867358
C        8.42737130        6.63545480        1.32584200
C        7.62792700        7.57393810        9.30431960
C        8.43948400        8.48751720       10.12667100
C        5.77917170        5.74996970        2.21129380
C        6.66300800        6.66270360        3.12614050
C        5.85833440        7.47874640        3.98292380
C        6.69604580        8.44409790        4.92424900
C        7.58512630        5.82117760        3.92762700
C        8.43616700        6.68510850        4.89877880
C        7.58177620        7.53650710        2.21635300
C        8.46803570        8.45847440        3.15136670
C        5.66691840        5.86680320        5.80441200
C        6.69541750        6.65661420        6.64740510
C        5.78943400        7.62535840        7.57475430
C        6.65808440        8.49729530        8.43838580
C        7.56538060        5.83651710        7.53474470
C        8.48912700        6.64653450        8.38566760
C        7.58672630        7.56373210        5.78847180
C        8.45878390        8.41372110        6.70039860
N        5.69055240        3.88407940        3.88640050
