&CONTROL
calculation = 'scf'
restart_mode = 'from_scratch'
verbosity = 'high'
wf_collect = .true.
pseudo_dir='/home/arpank/pseudopotentials/'
tprnfor = .true.
/
&SYSTEM
ibrav = 0
ecutwfc = 60
tot_charge = -1
nspin = 2
tot_magnetization = 2.0
nbnd = 480
nat = 215
ntyp = 2
input_dft = 'PBE0'
exx_fraction = 0.18
ecutfock = 120
/
&ELECTRONS
conv_thr = 1D-8
diago_full_acc=.true.
mixing_beta = 0.3
/
&IONS
ion_dynamics='bfgs'
ion_positions='default'
/
K_POINTS gamma
ATOMIC_SPECIES
C  12.01099968  C_ONCV_PBE-1.0.upf
N  14.00699997  N_ONCV_PBE-1.0.upf
CELL_PARAMETERS angstrom
    10.65000000      0.00000000      0.00000000
     0.00000000     10.65000000      0.00000000
     0.00000000      0.00000000     10.65000000
ATOMIC_POSITIONS angstrom
C        9.23966450        9.39239610        9.28822030
C       10.20526900       10.17964700       10.18313300
C        9.34001240        0.45913498        0.39651830
C       10.18898600        1.26609810        1.33443020
C        0.39628129        9.32191770        0.50576777
C        1.29982580       10.21342800        1.33420000
C        0.45530657        0.42953481        9.33835520
C        1.36654440        1.36438460       10.22585300
C        9.25873670        9.34645380        2.20033980
C       10.26651200       10.18738300        3.10257020
C        9.35416280        0.46900812        4.01573790
C       10.14745100        1.33128250        4.84340770
C        0.48918512        9.32982550        3.98189040
C        1.32085860       10.16140400        4.89793640
C        0.46354419        0.44175424        2.28267090
C        1.30340670        1.31799540        3.19171140
C        9.35750250        9.29648820        5.69987900
C       10.26567200       10.18146400        6.64679790
C        9.32397060        0.38879858        7.50200160
C       10.18278900        1.33179750        8.45541320
C        0.45638491        9.28437110        7.52986620
C        1.35862640       10.19932000        8.35676790
C        0.40872022        0.45536264        5.76963530
C        1.34013380        1.34757640        6.66492260
C        9.34116900        2.15982170        9.31792090
C       10.08690500        3.06874900       10.21941900
C        9.29323600        4.01122090        0.49192212
C       10.21925800        4.94450150        1.31152590
C        0.39741774        2.23018850        0.40029278
C        1.27732880        3.09386880        1.31750010
C        0.38412845        3.95341670        9.36983870
C        1.34653150        4.89728420       10.22018700
C        9.34366830        2.30569990        2.13830700
C       10.27173600        3.11237120        3.06638270
C        9.30990630        4.03765120        3.95334550
C       10.23699600        4.90476580        4.82615790
C        0.42844111        2.20142320        4.06200380
C        1.28395360        3.07551620        5.00219020
C        0.42980837        3.96073420        2.14391230
C        1.33794940        4.84037300        3.09192020
C        9.33899850        2.27379620        5.76389050
C       10.22127700        3.09609610        6.67241300
C        9.34487260        3.99058790        7.59353220
C       10.27072700        4.90485400        8.46905450
C        0.46162506        2.18340790        7.55897380
C        1.31666050        3.12164060        8.40094830
C        0.47452542        3.95741100        5.78574340
C        1.38784430        4.85292070        6.67568470
C        9.32668310        5.80393400        9.25140140
C       10.20245900        6.68739060       10.19654000
C        9.26616670        7.57366470        0.42034409
C       10.18327800        8.43514800        1.38752480
C        0.39286810        5.77997050        0.34820498
C        1.36373210        6.65392870        1.33411090
C        0.37061190        7.52779530        9.30440550
C        1.32979800        8.38632230       10.17973100
C        9.25561730        5.76632530        2.24279220
C       10.18258600        6.65686220        3.17420260
C        9.38634060        7.50692310        4.01319720
C       10.21960300        8.35691540        4.79976600
C        0.44853826        5.75621950        3.98154250
C        1.32625550        6.57501420        4.84064000
C        0.46455067        7.54825920        2.21875240
C        1.35653520        8.38112020        3.12128350
C        9.32337450        5.75990600        5.81986960
C       10.26825200        6.64433170        6.66565860
C        9.27565740        7.53062220        7.52370530
C       10.17866800        8.39076640        8.37420460
C        0.46571744        5.73355830        7.48659100
C        1.36116690        6.64628520        8.46641750
C        0.42700110        7.46610840        5.76210290
C        1.36706490        8.33802960        6.66628060
C        2.16709810        9.34565860        9.40544630
C        3.13418530       10.18687800       10.22955000
C        2.18150630        0.44332526        0.51892176
C        3.04491000        1.30890170        1.31785530
C        3.98083100        9.29963700        0.42954016
C        4.87695100       10.14906300        1.35822920
C        3.95379940        0.43724514        9.38761950
C        4.91628460        1.33222730       10.20105700
C        2.25218220        9.31715790        2.28796840
C        3.06029200       10.18703600        3.16415500
C        2.15377790        0.44876062        4.04974580
C        3.13692630        1.34258770        4.91669410
C        4.07166340        9.32072310        3.97383920
C        4.99485390       10.26385500        4.85734980
C        4.03169640        0.50322668        2.20662240
C        4.84456470        1.30008570        3.10217340
C        2.17559930        9.29495030        5.80333920
C        3.18329040       10.28420700        6.68337330
C        2.23087720        0.46603383        7.58599480
C        3.07703090        1.39437110        8.50728620
C        4.00262090        9.35885110        7.59685800
C        4.83622220       10.19052600        8.52292600
C        4.05018250        0.44953266        5.73030350
C        4.85541520        1.33970980        6.57115600
C        2.23316140        2.25539870        9.33083230
C        3.07893620        3.10157710       10.28760700
C        2.26946690        3.99719740        0.43710873
C        3.16982620        4.87818760        1.32559570
C        3.94993610        2.21057050        0.43705473
C        4.83558630        3.13198350        1.35014440
C        3.90577700        3.99409290        9.33993480
C        4.89837270        4.86145140       10.24025500
C        2.20015900        2.16528590        2.18498720
C        3.00051700        3.14530810        3.00907600
C        2.14935760        3.94149850        3.99929270
C        3.14056100        4.90324140        4.77846620
C        3.88807200        2.14873340        3.98745870
C        4.88188170        3.15650940        4.92641950
C        3.98479170        4.01304410        2.21899100
C        4.95101410        4.83508740        3.09933110
C        2.14369750        2.19258300        5.79522260
C        3.19349030        3.15259060        6.62961840
C        2.24259370        4.05447510        7.53024800
C        3.10421890        4.87149940        8.40967190
C        4.00223620        2.21444070        7.57208620
C        4.90252190        3.07416330        8.46205070
C        3.99760800        4.00586040        5.73772990
C        4.87319800        4.87112150        6.62002210
C        2.18348290        5.74375750        9.34580530
C        3.18228080        6.71683900       10.12974200
C        2.29567490        7.57031580        0.37114663
C        3.16255380        8.44071420        1.28584970
C        4.05869640        5.68421650        0.40865382
C        4.95208040        6.62069720        1.30046450
C        4.01417700        7.55243750        9.27804880
C        4.83228070        8.42740590       10.21487900
C        2.15973060        5.74744390        2.17330740
C        3.15001320        6.68068690        3.13221640
C        2.29576610        7.48735600        3.99747760
C        3.11090600        8.43572590        4.88922620
C        4.01108940        5.71642070        4.00561400
C        4.91268590        6.68187570        4.85039130
C        3.97500230        7.57065650        2.22260680
C        4.90713170        8.43161440        3.07754200
C        2.32954870        5.71711680        5.76364700
C        3.09859780        6.66848180        6.63989170
C        2.26222580        7.54022900        7.47280400
C        3.04543020        8.47351270        8.44400680
C        4.00728120        5.74453030        7.52519720
C        4.86500650        6.68820020        8.46257110
C        3.94864560        7.51852360        5.84288700
C        4.90879040        8.45364060        6.59809630
C        5.77269710        9.39685270        9.47414210
C        6.64167490       10.19491700       10.24682700
C        5.76608690        0.48684150        0.47909846
C        6.61693530        1.29284490        1.28184850
C        7.57076400        9.40728090        0.42823399
C        8.40674340       10.26022100        1.36862480
C        7.53029710        0.47841685        9.33675520
C        8.42683500        1.33555400       10.22028100
C        5.78965960        9.34185750        2.19101410
C        6.67738280       10.23402400        3.09743920
C        5.80681760        0.39507884        4.03328710
C        6.64850880        1.34612830        4.90033050
C        7.61825270        9.40049850        3.97752080
C        8.44309730       10.22719900        4.82348720
C        7.53342100        0.51783241        2.23603270
C        8.44959720        1.41255420        3.14187890
C        5.82060490        9.31402350        5.74359330
C        6.68914740       10.22902600        6.69542170
C        5.71677690        0.43682043        7.54736990
C        6.57134350        1.31125810        8.43779890
C        7.57428450        9.36666720        7.55049560
C        8.40007190       10.26220300        8.43955810
C        7.47694010        0.41935524        5.83055180
C        8.45675750        1.37572930        6.67241160
C        5.72913010        2.17432370        9.30706910
C        6.66928370        3.17402770       10.17625000
C        5.69730740        3.95368580        0.46283479
C        6.66495540        4.81371800        1.29949460
C        7.49628090        2.18284560        0.40284793
C        8.42072710        3.07869680        1.29851790
C        7.55003590        3.95723600        9.31549460
C        8.40761210        4.86456570       10.25049900
C        5.75957260        2.26815500        2.21793370
C        6.63735150        3.06640250        3.09206050
C        7.54491170        2.22280220        4.00676220
C        8.40681060        3.14122870        4.94719490
C        7.62058370        3.98386270        2.14125450
C        8.49723310        4.86239940        3.00602090
C        5.78952140        2.27675780        5.77254360
C        6.66116800        3.11286790        6.65291890
C        5.76636570        3.94730480        7.57708860
C        6.57805010        4.87418900        8.42132900
C        7.55558310        2.27141470        7.57477930
C        8.40677410        3.06230870        8.45051240
C        7.60525870        3.99772060        5.91446950
C        8.37343030        4.83131050        6.68373490
C        5.76973060        5.74874870        9.37098580
C        6.60949820        6.62900190       10.22606600
C        5.77467910        7.48850170        0.42267138
C        6.64509380        8.53688160        1.24829010
C        7.47708300        5.71380080        0.46168101
C        8.39559450        6.57166510        1.31704520
C        7.52393550        7.54410720        9.29400170
C        8.37960650        8.46942930       10.17624200
C        5.89369290        5.77721700        2.19485190
C        6.69615700        6.67704380        3.08050110
C        5.76688890        7.54747390        3.93079210
C        6.64761490        8.45389330        4.88156120
C        7.61157270        5.84193960        3.94724700
C        8.42237490        6.66804450        4.93177150
C        7.54352070        7.56445730        2.18775010
C        8.48398090        8.43508690        3.09695990
C        5.69245830        5.88885110        5.83744690
C        6.68542480        6.66908480        6.68786810
C        5.77511050        7.51164840        7.51813890
C        6.67966990        8.45221720        8.42384450
C        7.53518250        5.79780210        7.52399760
C        8.37116040        6.58572840        8.43600450
C        7.55111150        7.56846980        5.76856000
C        8.42372050        8.47205200        6.59669520
N        5.72266880        3.90982680        3.90236340
