&CONTROL
calculation = 'scf'
restart_mode = 'from_scratch'
verbosity = 'high'
wf_collect = .true.
pseudo_dir='/home/arpank/pseudopotentials/'
tprnfor = .true.
/
&SYSTEM
ibrav = 0
ecutwfc = 60
tot_charge = -1
nspin = 2
tot_magnetization = 2.0
nbnd = 480
nat = 215
ntyp = 2
input_dft = 'PBE0'
exx_fraction = 0.18
ecutfock = 120
/
&ELECTRONS
conv_thr = 1D-8
diago_full_acc=.true.
mixing_beta = 0.3
/
&IONS
ion_dynamics='bfgs'
ion_positions='default'
/
K_POINTS gamma
ATOMIC_SPECIES
C  12.01099968  C_ONCV_PBE-1.0.upf
N  14.00699997  N_ONCV_PBE-1.0.upf
CELL_PARAMETERS angstrom
    10.65000000      0.00000000      0.00000000
     0.00000000     10.65000000      0.00000000
     0.00000000      0.00000000     10.65000000
ATOMIC_POSITIONS angstrom
C        9.25174930        9.30824900        9.36128720
C       10.30233900       10.17170000       10.13666800
C        9.33359940        0.45604490        0.38190482
C       10.21613600        1.32060760        1.26852920
C        0.51862366        9.32836130        0.42337287
C        1.35703680       10.20103500        1.33005790
C        0.48666546        0.45207736        9.36927200
C        1.37078870        1.27558450       10.21378300
C        9.36976000        9.34160120        2.24983230
C       10.21784900       10.22803400        3.13451520
C        9.29198380        0.44124131        3.98011900
C       10.26623700        1.29799880        4.90910320
C        0.31387029        9.36570890        3.96179400
C        1.29278910       10.20138200        4.92769940
C        0.44661743        0.38105625        2.20042480
C        1.35847980        1.35121100        3.07314990
C        9.29314040        9.31613930        5.80399860
C       10.22107600       10.28576700        6.65394520
C        9.34265380        0.47229809        7.59314620
C       10.20201400        1.35726950        8.37702990
C        0.41302477        9.34446380        7.57867710
C        1.35795380       10.18356000        8.44738300
C        0.42357869        0.41972665        5.69820590
C        1.36107340        1.33120800        6.64806970
C        9.35405670        2.19313870        9.28080050
C       10.21035000        3.12325990       10.23590600
C        9.30521280        3.99718020        0.42809289
C       10.17911900        4.90731610        1.43905970
C        0.43113832        2.20415250        0.47008242
C        1.24367220        3.06513950        1.34833120
C        0.46904382        3.98918290        9.36456710
C        1.32987360        4.89627460       10.11311200
C        9.32187490        2.18661460        2.22226460
C       10.14824200        3.04411510        3.11510580
C        9.35539760        3.97499900        4.09066340
C       10.20359100        4.87797260        4.89170490
C        0.42424090        2.20078760        3.99734150
C        1.32287710        3.06317160        4.86997230
C        0.36094043        4.07297240        2.22702130
C        1.36899480        4.90085670        3.09493890
C        9.31976830        2.15354920        5.76902760
C       10.20155600        3.06396540        6.59841740
C        9.32921850        4.04314500        7.59017450
C       10.24318800        4.88781900        8.38463560
C        0.47882059        2.21011090        7.50720510
C        1.34051060        3.06598340        8.34742020
C        0.50372038        4.07387540        5.84982310
C        1.36701030        4.87429920        6.63975260
C        9.27523690        5.70777530        9.29655260
C       10.19648300        6.69942090       10.17566100
C        9.31667230        7.58357090        0.39076677
C       10.30859600        8.42629240        1.36658620
C        0.39191512        5.82521130        0.41657524
C        1.33648250        6.69736580        1.31796660
C        0.50662685        7.52876140        9.26511190
C        1.38418880        8.39153010       10.20624300
C        9.30301550        5.78169270        2.19889000
C       10.19565300        6.71749180        3.10720770
C        9.32501990        7.63855020        4.07180240
C       10.06884700        8.49243230        4.98067880
C        0.47568941        5.77876640        3.98595260
C        1.23345660        6.62345810        4.86589520
C        0.47758866        7.47138040        2.22418240
C        1.34113070        8.46616260        3.14660890
C        9.29785980        5.71644280        5.82227510
C       10.14860900        6.70740270        6.60150690
C        9.30724120        7.61769730        7.49886830
C       10.22693800        8.46248690        8.40432200
C        0.45962031        5.75776730        7.52412120
C        1.35772640        6.68500080        8.35729990
C        0.40259463        7.49585810        5.76783330
C        1.31284000        8.36543240        6.63169970
C        2.26496670        9.26675500        9.29403020
C        3.11761540       10.20526800       10.15586500
C        2.21830230        0.48388253        0.41392735
C        3.03830760        1.30799180        1.33254510
C        3.98285610        9.32307490        0.40360079
C        4.94332720       10.18269300        1.28453690
C        3.99873380        0.46565934        9.26378990
C        4.90882840        1.27075160       10.23560300
C        2.18978820        9.36863700        2.26927990
C        3.06598000       10.13179200        3.11756060
C        2.17349650        0.44941987        4.00176590
C        3.05610980        1.33361790        4.86523170
C        3.96373390        9.32230060        3.98617910
C        4.85157970       10.23575200        4.83383050
C        3.95562360        0.32024825        2.15663730
C        4.87640530        1.31557030        3.13367990
C        2.24461470        9.27531210        5.77619640
C        3.19149490       10.16381700        6.63498230
C        2.28410880        0.41586296        7.55749840
C        3.18495970        1.36126020        8.47256510
C        3.97941230        9.25926690        7.62031250
C        4.91734000       10.20787600        8.42230680
C        4.00449700        0.38706374        5.73089460
C        4.83003370        1.26931470        6.65555140
C        2.19152790        2.26799400        9.23802150
C        3.08761650        3.14395690       10.14469600
C        2.17717120        3.99447450        0.41200345
C        3.05127100        4.85533010        1.32678490
C        3.92133500        2.22350160        0.39084836
C        4.87335210        3.15015620        1.30505150
C        4.01738700        4.00591250        9.23943580
C        4.91785230        4.82358470       10.18032300
C        2.16970010        2.18753730        2.25523200
C        3.09620430        3.05480450        3.05292490
C        2.22458910        4.03466300        3.96383640
C        3.13689750        4.88354290        4.93769510
C        3.98005380        2.19741630        3.97430470
C        4.94982500        3.09779340        4.81618340
C        3.90799400        4.00656790        2.19767950
C        4.84644910        4.92096350        3.14198610
C        2.20576380        2.18843710        5.71419240
C        3.12930230        3.07839720        6.55260400
C        2.25997080        4.02402100        7.59679200
C        3.13653430        4.87757170        8.44268680
C        4.06239920        2.24793070        7.47509460
C        4.89815820        3.06772620        8.40405480
C        4.05792900        4.02041280        5.76526350
C        4.97007560        4.91538410        6.63321110
C        2.22047890        5.82445310        9.34891950
C        3.14958700        6.67795960       10.17365500
C        2.22025300        7.57437890        0.47866739
C        3.12099110        8.53675770        1.34370000
C        4.07525110        5.71862150        0.42572136
C        4.87669370        6.66158930        1.34443540
C        4.04267290        7.58714150        9.36241710
C        4.89003360        8.45987040       10.16912500
C        2.19470290        5.79094190        2.19322870
C        3.08778600        6.68551990        3.05340290
C        2.18046080        7.54726050        3.98798840
C        3.04371090        8.45154890        4.92163930
C        3.96019620        5.78330130        3.99208270
C        4.93368340        6.59773480        4.85177770
C        3.98254090        7.58463280        2.18505260
C        4.89663480        8.39695170        3.07056720
C        2.23336590        5.79073190        5.81641610
C        3.06086610        6.61461010        6.63661520
C        2.22076850        7.49975590        7.49764120
C        3.10105750        8.41245400        8.43879780
C        3.92911850        5.78084060        7.50964350
C        4.90954560        6.61468950        8.49420590
C        4.00865280        7.59098970        5.77813720
C        4.83781660        8.35476960        6.72956440
C        5.79339830        9.34037600        9.30556860
C        6.66025280       10.22444600       10.25132300
C        5.77090860        0.37075524        0.41869308
C        6.69558160        1.30075160        1.30330070
C        7.52757560        9.33470160        0.46005755
C        8.47501090       10.18882000        1.31729920
C        7.52554880        0.41802239        9.37011050
C        8.35031630        1.34782940       10.27164100
C        5.74936200        9.31593860        2.23458570
C        6.62338410       10.24250300        3.03265490
C        5.75049730        0.38173990        3.96188190
C        6.66162420        1.25226550        4.88094890
C        7.56425280        9.28346580        3.94318230
C        8.41503620       10.17529700        4.87273020
C        7.54457450        0.43668544        2.20234320
C        8.38474070        1.33924970        3.07197710
C        5.73192360        9.28290910        5.82431430
C        6.64072410       10.16571800        6.72521710
C        5.81527530        0.45073837        7.55246780
C        6.59402790        1.36034900        8.49119370
C        7.55995530        9.35895080        7.62825810
C        8.40835690       10.26025100        8.44444160
C        7.59871440        0.48825984        5.80504670
C        8.44122180        1.29825580        6.73838460
C        5.80326990        2.25018900        9.26941110
C        6.67870950        3.05500270       10.18364300
C        5.77972220        3.98017500        0.34099599
C        6.67462950        4.88795400        1.39321430
C        7.53106250        2.27304040        0.42029299
C        8.36725390        3.11637130        1.37529020
C        7.62001650        4.03199840        9.40613020
C        8.44897990        4.91831140       10.22700200
C        5.70454580        2.14784210        2.24918110
C        6.55835070        3.07010200        3.08122430
C        7.55007190        2.24430100        3.98031440
C        8.40452020        3.11472250        4.94890010
C        7.49915580        4.01501490        2.27447480
C        8.44640170        4.91708610        3.16962060
C        5.75336520        2.25375900        5.70659850
C        6.62855520        3.14447460        6.64232350
C        5.72842370        3.98911130        7.52785920
C        6.66348450        4.88739620        8.45118050
C        7.50930180        2.18486050        7.55886040
C        8.50498290        3.14400660        8.43518480
C        7.54972270        3.91530510        5.89500250
C        8.46143060        4.79300420        6.64886270
C        5.82982420        5.80980250        9.33838680
C        6.72406380        6.63443170       10.25190500
C        5.82157410        7.64863180        0.40701734
C        6.67436400        8.43429170        1.36246320
C        7.53867360        5.75289910        0.49400550
C        8.38635150        6.66224200        1.33583370
C        7.64124960        7.54326180        9.33563960
C        8.39283260        8.49681810       10.19936300
C        5.79434910        5.76526380        2.27791210
C        6.68218470        6.64106920        3.12591220
C        5.76694820        7.52352430        3.94223010
C        6.59075970        8.45235710        4.93945470
C        7.58954020        5.79467180        3.97152030
C        8.37380440        6.63343460        4.85462730
C        7.50558890        7.56471270        2.32855810
C        8.46591220        8.50185650        3.10377080
C        5.77991070        5.88679190        5.80009680
C        6.63960750        6.67161330        6.64497620
C        5.81005660        7.48396640        7.59502030
C        6.73176180        8.44231820        8.50385390
C        7.57042570        5.75288130        7.59592360
C        8.41802970        6.67000680        8.42251610
C        7.46669740        7.54616870        5.75651200
C        8.36195120        8.46639430        6.65050880
N        5.67880740        3.91573010        3.97127250
