&CONTROL
calculation = 'scf'
restart_mode = 'from_scratch'
verbosity = 'high'
wf_collect = .true.
pseudo_dir='/home/arpank/pseudopotentials/'
tprnfor = .true.
/
&SYSTEM
ibrav = 0
ecutwfc = 60
tot_charge = -1
nspin = 2
tot_magnetization = 2.0
nbnd = 480
nat = 215
ntyp = 2
input_dft = 'PBE0'
exx_fraction = 0.18
ecutfock = 120
/
&ELECTRONS
conv_thr = 1D-8
diago_full_acc=.true.
mixing_beta = 0.3
/
&IONS
ion_dynamics='bfgs'
ion_positions='default'
/
K_POINTS gamma
ATOMIC_SPECIES
C  12.01099968  C_ONCV_PBE-1.0.upf
N  14.00699997  N_ONCV_PBE-1.0.upf
CELL_PARAMETERS angstrom
    10.65000000      0.00000000      0.00000000
     0.00000000     10.65000000      0.00000000
     0.00000000      0.00000000     10.65000000
ATOMIC_POSITIONS angstrom
C        9.35791820        9.27811850        9.29578090
C       10.21128500       10.15703700       10.22633200
C        9.33134010        0.50220328        0.39888461
C       10.23196700        1.27844440        1.37666310
C        0.36040488        9.26724880        0.40147000
C        1.41072370       10.16780100        1.31302930
C        0.45275681        0.33041085        9.34625860
C        1.32360580        1.19932910       10.21835500
C        9.37434950        9.34414410        2.21518720
C       10.17059300       10.24112900        3.15577290
C        9.30370940        0.41524992        4.07628060
C       10.19877800        1.41715370        4.86654510
C        0.46285589        9.38034490        4.01565540
C        1.26937840       10.14718400        4.83775860
C        0.45089400        0.43010846        2.25235580
C        1.32543580        1.33759210        3.13217040
C        9.28170130        9.31337160        5.74498340
C       10.18617900       10.26503200        6.65561820
C        9.22891070        0.47160234        7.52938760
C       10.20940500        1.33449200        8.44516520
C        0.52460921        9.31429440        7.54221700
C        1.35774960       10.13381800        8.38340080
C        0.40942717        0.53913860        5.77218200
C        1.32755800        1.35977120        6.64652990
C        9.30136550        2.26355160        9.39667600
C       10.29160500        3.09930650       10.16937500
C        9.31088190        3.99597710        0.46261950
C       10.26734800        4.88946390        1.35241360
C        0.45471525        2.19038900        0.43746257
C        1.34105320        3.09692260        1.28329670
C        0.45277056        3.99399130        9.35173650
C        1.29414930        4.83765310       10.20761300
C        9.32099930        2.22630390        2.23199400
C       10.15002500        3.12390550        3.15444780
C        9.27848660        4.04258930        3.97160580
C       10.16404700        4.82596550        4.85938470
C        0.46659223        2.28779160        4.01531830
C        1.37323810        3.12281640        4.87963710
C        0.49861600        4.00572170        2.18261460
C        1.30449190        4.91766910        3.09755170
C        9.27962380        2.21737840        5.78587840
C       10.14082700        3.13800170        6.67472020
C        9.30098170        3.96341020        7.46904760
C       10.24540200        4.79229310        8.38630110
C        0.40783375        2.21569720        7.58752570
C        1.37642890        3.12759980        8.36446750
C        0.45331449        4.02463210        5.74976980
C        1.33415410        4.86355590        6.67610410
C        9.45960040        5.72958220        9.37677470
C       10.29656000        6.63976340       10.19321400
C        9.23109000        7.56668290        0.44981600
C       10.21465100        8.36254510        1.29983870
C        0.47260248        5.81038000        0.50290881
C        1.40903250        6.72022740        1.30222930
C        0.47452611        7.53695780        9.34973470
C        1.32626020        8.44019460       10.20174400
C        9.33858180        5.74035920        2.23380280
C       10.25861500        6.68300930        3.07540840
C        9.34596370        7.52485840        4.00890060
C       10.21100800        8.43370110        4.92615420
C        0.46190659        5.78394280        4.02781950
C        1.34106670        6.66780300        4.92484800
C        0.40640311        7.50433120        2.18710170
C        1.23741570        8.42121820        3.05457070
C        9.32903620        5.72032590        5.79058870
C       10.20234300        6.63593400        6.62799640
C        9.29132470        7.52862310        7.50530240
C       10.23936600        8.46250250        8.42241080
C        0.43881185        5.78206010        7.51200230
C        1.31007070        6.66356820        8.45968560
C        0.45568030        7.51627260        5.73678690
C        1.40774090        8.41779950        6.59661970
C        2.25303640        9.33167970        9.21727800
C        3.13150210       10.12487500       10.26261900
C        2.28496200        0.38278936        0.48824389
C        3.07161900        1.31995070        1.30671170
C        4.03478140        9.27432860        0.48294556
C        4.87724720       10.23420400        1.28625630
C        3.96069220        0.50950058        9.31179220
C        4.84838030        1.35663820       10.16508800
C        2.26870800        9.27750990        2.23422900
C        3.10018420       10.16874300        3.05634210
C        2.19055600        0.43149088        4.06563470
C        3.00891510        1.30651670        4.89283280
C        3.92896200        9.28725690        3.94890460
C        4.89457060       10.19803000        4.86728280
C        3.98562560        0.44753317        2.19237100
C        4.86318460        1.30809640        3.10674270
C        2.20712200        9.32759440        5.68633590
C        3.10235030       10.15494100        6.70196360
C        2.17544110        0.44433294        7.57681820
C        3.06758400        1.33808530        8.44545880
C        4.05601100        9.22060650        7.51287720
C        4.85603510       10.14963100        8.40218950
C        4.03832370        0.42483320        5.78647800
C        4.86305190        1.33346360        6.58778840
C        2.16777740        2.21874770        9.29757160
C        3.11449720        3.15216310       10.21656400
C        2.24808210        4.00491380        0.46808907
C        3.10212320        4.86066360        1.36057770
C        3.97714960        2.20511840        0.44235761
C        4.90147570        3.08043170        1.34435270
C        4.01174060        3.97765840        9.26601510
C        4.88222610        4.86077480       10.20194600
C        2.18772100        2.23923470        2.26317710
C        3.13916310        3.05995670        3.10740830
C        2.23451780        4.01179280        3.93860600
C        3.11321210        4.90468280        4.77854010
C        3.96563910        2.26703260        3.99805070
C        4.87404920        3.11434940        4.84608110
C        3.97427100        4.02754750        2.23997850
C        4.86801790        4.89566450        3.12583950
C        2.21441590        2.25480910        5.74655090
C        3.07962060        3.08279420        6.60720440
C        2.15097640        3.95548780        7.48024000
C        3.18049460        4.86360320        8.41300740
C        3.96425050        2.20078960        7.53703100
C        4.89731640        3.19598230        8.37748160
C        4.01179690        4.01137380        5.71056450
C        4.88793390        4.91554040        6.68130960
C        2.15111020        5.72838750        9.32303390
C        3.16511900        6.66857060       10.12557600
C        2.24296920        7.51172890        0.38323168
C        3.12845040        8.38547490        1.37553580
C        4.02292260        5.71160000        0.45528059
C        4.88706060        6.68417210        1.32614300
C        3.97705690        7.50958620        9.29413340
C        4.91328990        8.45258920       10.13157600
C        2.12009980        5.77571900        2.25121520
C        3.08982720        6.62680210        3.08510170
C        2.18651390        7.58133470        3.97895430
C        3.14761710        8.32663890        4.84469900
C        4.08088130        5.81303520        4.00440730
C        4.88460130        6.62703910        4.86061120
C        4.00612190        7.52041790        2.27028400
C        4.88719230        8.38015580        3.16656680
C        2.27695690        5.70613540        5.77628870
C        3.13985310        6.68882170        6.64615430
C        2.20269580        7.53019790        7.50747790
C        3.08765250        8.40245600        8.40998280
C        4.02120520        5.75518020        7.54400270
C        4.91193040        6.70557110        8.39245330
C        4.09587120        7.51177220        5.75770020
C        4.87799650        8.42973950        6.60297030
C        5.75667700        9.34132350        9.32201960
C        6.58189680       10.24468700       10.19171600
C        5.79146900        0.39929544        0.40356694
C        6.66732600        1.32965150        1.29646880
C        7.55264390        9.28150290        0.39127114
C        8.41782820       10.23265700        1.29782670
C        7.48460410        0.49124109        9.33110700
C        8.35371410        1.36603510       10.16649200
C        5.83235730        9.29355450        2.18162720
C        6.73445660       10.24452000        3.10296350
C        5.70970660        0.44211329        4.02550210
C        6.60510310        1.30782380        4.89679920
C        7.51606880        9.40812290        3.99002890
C        8.46392720       10.22719200        4.96402180
C        7.51251100        0.42139622        2.15211320
C        8.44641660        1.36407880        3.09675400
C        5.73432500        9.32405730        5.78306860
C        6.60382020       10.14940700        6.74555150
C        5.80636600        0.53596868        7.52086430
C        6.59224960        1.38239260        8.42217990
C        7.49333290        9.31390370        7.64315960
C        8.38736850       10.22217000        8.50064610
C        7.56335160        0.45625799        5.84534340
C        8.37363250        1.36061790        6.65779640
C        5.77050810        2.27682750        9.25129710
C        6.70698470        3.16111590       10.13865400
C        5.80639010        3.99807140        0.47068489
C        6.68518320        4.89344630        1.38782490
C        7.59449070        2.17799850        0.44347179
C        8.43856890        3.11226980        1.32381530
C        7.61115480        4.01391310        9.32542240
C        8.55623320        4.91725000       10.26095100
C        5.77527040        2.17717120        2.22979180
C        6.58858520        3.09065740        3.04294920
C        7.46487200        2.24098260        3.97112310
C        8.43584940        3.06723020        4.88248240
C        7.51495960        4.00950010        2.28470190
C        8.39716790        4.91027860        3.10469570
C        5.73826770        2.23716170        5.79493400
C        6.61015030        3.16310070        6.67310870
C        5.70086840        4.07901010        7.57191450
C        6.66029360        4.88087150        8.52008720
C        7.52399340        2.26831970        7.55183780
C        8.44736220        3.07007860        8.43472290
C        7.55129350        4.05334770        5.81742950
C        8.39605930        4.82743760        6.68933760
C        5.77067630        5.85080480        9.38419690
C        6.57160420        6.75687890       10.31187800
C        5.74920490        7.57483810        0.50278659
C        6.68489920        8.43106890        1.30814010
C        7.48989860        5.79981010        0.42744378
C        8.43440300        6.69324960        1.35348460
C        7.57812980        7.54152070        9.39182080
C        8.45794780        8.37508000       10.27719700
C        5.81488950        5.79731810        2.25171990
C        6.61553590        6.70792150        3.07851950
C        5.76901840        7.55203300        4.02821840
C        6.64957940        8.41973250        4.93638640
C        7.64853510        5.83239630        3.93188050
C        8.42151510        6.68182100        4.94022100
C        7.59788570        7.58541360        2.20886080
C        8.44199050        8.40640320        3.14305660
C        5.74462440        5.75653870        5.88650960
C        6.61218250        6.66979570        6.67272550
C        5.82219260        7.57210970        7.53383340
C        6.70189790        8.40860670        8.43793900
C        7.57828980        5.72314910        7.54204820
C        8.43109080        6.58928890        8.42004580
C        7.59402190        7.54982840        5.76928940
C        8.36645700        8.42986420        6.68840550
N        5.60157460        3.91748450        3.88571850
