&CONTROL
calculation = 'scf'
restart_mode = 'from_scratch'
verbosity = 'high'
wf_collect = .true.
pseudo_dir='/home/arpank/pseudopotentials/'
tprnfor = .true.
/
&SYSTEM
ibrav = 0
ecutwfc = 60
tot_charge = -1
nspin = 2
tot_magnetization = 2.0
nbnd = 480
nat = 215
ntyp = 2
input_dft = 'PBE0'
exx_fraction = 0.18
ecutfock = 120
/
&ELECTRONS
conv_thr = 1D-8
diago_full_acc=.true.
mixing_beta = 0.3
/
&IONS
ion_dynamics='bfgs'
ion_positions='default'
/
K_POINTS gamma
ATOMIC_SPECIES
C  12.01099968  C_ONCV_PBE-1.0.upf
N  14.00699997  N_ONCV_PBE-1.0.upf
CELL_PARAMETERS angstrom
    10.65000000      0.00000000      0.00000000
     0.00000000     10.65000000      0.00000000
     0.00000000      0.00000000     10.65000000
ATOMIC_POSITIONS angstrom
C        9.40361870        9.25805800        9.24950550
C       10.16560900       10.15949000       10.19191100
C        9.29657660        0.48184687        0.47001161
C       10.23757500        1.34864610        1.37475060
C        0.46118164        9.30936270        0.48494184
C        1.31160410       10.24185300        1.35370250
C        0.46945545        0.44505603        9.32797070
C        1.47027940        1.32974400       10.20946900
C        9.31944700        9.29782590        2.26095340
C       10.19321100       10.13681100        3.13034410
C        9.37503690        0.51501193        4.05255170
C       10.15873600        1.39510060        4.89694400
C        0.45827702        9.31107040        3.99255610
C        1.33343900       10.22634200        4.81593780
C        0.47694160        0.41790986        2.22928200
C        1.35847460        1.35683660        3.02764690
C        9.34615680        9.22629070        5.75174420
C       10.24131900       10.17640700        6.61277070
C        9.27311540        0.33448030        7.52998850
C       10.22633700        1.38589450        8.43665940
C        0.36574757        9.34549200        7.53689040
C        1.35714950       10.24576200        8.36775150
C        0.50159385        0.41977997        5.79288150
C        1.32554120        1.29672280        6.67491400
C        9.31659680        2.21943810        9.32501250
C       10.23682100        3.22100930       10.18711300
C        9.32588060        3.97245310        0.49395514
C       10.23546800        4.93427780        1.35968430
C        0.45111959        2.20248390        0.44436122
C        1.31593950        3.17381140        1.28948510
C        0.43559560        3.98892370        9.28294030
C        1.29392180        4.83691380       10.20340100
C        9.26702010        2.22996340        2.22141400
C       10.14591600        3.17182780        3.07059530
C        9.32228510        3.96798060        3.97961140
C       10.17278800        4.94174350        4.85813000
C        0.44114135        2.19917490        3.94516910
C        1.25482860        3.13078490        4.79320200
C        0.42802420        4.02823140        2.29937960
C        1.35079660        4.87299230        3.15215240
C        9.31867620        2.19841670        5.76343960
C       10.15607800        3.14555970        6.73910130
C        9.30361890        4.00930990        7.62711260
C       10.21003500        4.96260620        8.37873730
C        0.47314001        2.19986320        7.51733720
C        1.33817970        3.13649870        8.41365800
C        0.40508920        3.98630770        5.79691650
C        1.31656840        4.85311030        6.66975820
C        9.27055150        5.77010330        9.30462250
C       10.17368600        6.63334180       10.28678000
C        9.32388730        7.54754550        0.44213614
C       10.22450400        8.43209560        1.41826770
C        0.53619222        5.76157600        0.49192333
C        1.32005140        6.63584120        1.39533620
C        0.50342526        7.54363390        9.33301810
C        1.34746770        8.46970200       10.25131000
C        9.33568650        5.81884700        2.26261610
C       10.18208500        6.65553050        3.08364310
C        9.34235710        7.51058560        4.10364820
C       10.19697800        8.48088670        4.88374610
C        0.41873087        5.79795220        3.99780780
C        1.35172290        6.65658850        4.88106740
C        0.45548099        7.51045560        2.28728770
C        1.37276630        8.44851000        3.19516260
C        9.31936220        5.73836900        5.84514310
C       10.26095300        6.61627420        6.72459260
C        9.31541440        7.58807220        7.61774680
C       10.25821100        8.38217400        8.44678620
C        0.48196553        5.76662360        7.58721290
C        1.39652790        6.67245930        8.43345760
C        0.49708565        7.61056250        5.75807330
C        1.29114220        8.41430420        6.59541990
C        2.25632110        9.30258000        9.31150610
C        3.07287250       10.23608300       10.13731700
C        2.30805840        0.42026095        0.43811245
C        3.19241630        1.31788350        1.37669960
C        4.00130040        9.29747140        0.42398884
C        4.86554270       10.21822500        1.31086270
C        3.97620130        0.47521215        9.23476620
C        4.95130480        1.29677910       10.13583500
C        2.29168230        9.31957730        2.23918850
C        3.19591240       10.18930000        3.03798340
C        2.26191670        0.40957144        3.87829780
C        3.14364130        1.35454440        4.87293440
C        3.96567670        9.30937220        3.95313760
C        4.99550450       10.17944200        4.88158600
C        4.06239670        0.40455003        2.21770430
C        4.87171670        1.34655600        3.12698560
C        2.28443420        9.28425170        5.78515350
C        3.15654840       10.20579900        6.53800970
C        2.21745630        0.53900455        7.47131310
C        3.07305480        1.42115940        8.41984880
C        3.99479640        9.40215580        7.55193470
C        4.90918610       10.26487300        8.37950290
C        3.97520440        0.50274100        5.69525270
C        4.85193380        1.41286910        6.64464710
C        2.30162750        2.20939970        9.29463370
C        3.10944470        3.06770820       10.29087100
C        2.19838480        4.00321350        0.45521288
C        3.05853990        4.92448400        1.34755510
C        4.03025460        2.18883350        0.45731411
C        4.92588610        3.07487200        1.33170530
C        3.96903150        3.97187440        9.33214780
C        4.86555740        4.89402940       10.17448900
C        2.22261200        2.25988320        2.16346720
C        3.08665990        3.06532180        3.11618770
C        2.19781370        3.99928200        4.01929400
C        3.08083770        4.90339300        4.86992100
C        3.99857740        2.23456930        4.04296580
C        4.85477790        3.12283780        4.78730360
C        3.95878530        4.04640670        2.25157780
C        4.86310530        4.84266440        3.10281160
C        2.23627240        2.19700370        5.73566610
C        3.08792240        3.05629080        6.60803310
C        2.24474920        3.95254320        7.52557690
C        3.06042490        4.89346830        8.49178530
C        3.89377500        2.30835300        7.48567830
C        4.87496670        3.12724560        8.35606430
C        3.97443270        3.97983130        5.72929960
C        4.87515790        4.89924390        6.73368290
C        2.23013870        5.76198580        9.31577000
C        3.12996690        6.70306640       10.15018300
C        2.23478970        7.51440080        0.51130646
C        3.08944070        8.39088300        1.31897510
C        3.94384950        5.79962830        0.46168868
C        4.80681130        6.60959620        1.36400250
C        3.94491440        7.55580420        9.33037110
C        4.88032500        8.46262250       10.18807800
C        2.21877910        5.81360030        2.20621220
C        3.08648180        6.62236050        3.04536490
C        2.20536580        7.51951080        4.04346950
C        3.04660220        8.37070800        4.89682350
C        3.94995140        5.72343000        4.01365510
C        4.87932730        6.62298150        4.85943400
C        4.01340280        7.49182800        2.22669850
C        4.87875220        8.32748010        3.09227050
C        2.26110220        5.75195060        5.72520480
C        3.06043400        6.68635310        6.66088380
C        2.24118600        7.55020420        7.47579120
C        3.15871670        8.47539850        8.38647340
C        3.95998690        5.77546060        7.57690600
C        4.90440160        6.67025120        8.47427890
C        4.09593630        7.53220990        5.80943120
C        4.84391110        8.43684460        6.65201220
C        5.82673210        9.30614300        9.34265490
C        6.63951920       10.19468300       10.17531800
C        5.76924880        0.38471538        0.41383579
C        6.63169140        1.28596290        1.29678370
C        7.48008320        9.26058260        0.42319885
C        8.34259550       10.18207000        1.28724400
C        7.63201850        0.47570641        9.32797660
C        8.43350600        1.37525820       10.21655100
C        5.77428300        9.36339080        2.20432420
C        6.62756870       10.21633600        3.04624490
C        5.82678270        0.45438670        3.99457510
C        6.67599540        1.29323100        4.95630500
C        7.53219570        9.34280110        3.95321370
C        8.42003250       10.24253200        4.93288360
C        7.50026200        0.41493443        2.12528550
C        8.44022740        1.34188230        3.15739200
C        5.76776140        9.34504790        5.77262780
C        6.68122000       10.24126500        6.68429470
C        5.78859470        0.57056279        7.59428690
C        6.67670090        1.33775870        8.44345940
C        7.50852860        9.30897460        7.57473990
C        8.39838270       10.22709200        8.49152090
C        7.56284010        0.45171991        5.79033970
C        8.41647950        1.35373420        6.69306920
C        5.73610600        2.22110600        9.31696950
C        6.65067890        3.10613490       10.18411700
C        5.75381380        3.96604230        0.41864236
C        6.63403760        4.88125560        1.40926160
C        7.52471650        2.31173330        0.40597880
C        8.40574140        3.13671700        1.34318970
C        7.47232020        3.96951180        9.26820460
C        8.36082390        4.82487860       10.20011100
C        5.69519210        2.17989860        2.13391430
C        6.56433200        3.07222790        3.04650130
C        7.47539900        2.20244510        3.98413390
C        8.46383550        3.12382780        5.00218970
C        7.53746120        4.00332190        2.27791720
C        8.41854470        4.88687940        3.12295380
C        5.81473940        2.22979490        5.74757780
C        6.64295290        3.20062230        6.60557540
C        5.71798390        3.99248810        7.54020000
C        6.60889350        4.84835780        8.36971440
C        7.55255140        2.18367100        7.55978560
C        8.40680360        3.06817940        8.41794650
C        7.62205000        3.98477850        5.84298300
C        8.43584260        4.88383370        6.65865580
C        5.74773660        5.72234610        9.33247950
C        6.65496880        6.65871180       10.24337700
C        5.77501670        7.52433540        0.43509542
C        6.64891440        8.36520330        1.34012880
C        7.56640020        5.74786810        0.46191831
C        8.38960120        6.61361770        1.34408440
C        7.46285610        7.52857770        9.27954710
C        8.42503830        8.42400960       10.17201900
C        5.76600330        5.69928410        2.26595340
C        6.65602910        6.57141990        3.13334850
C        5.77669580        7.44090200        3.97300030
C        6.71503650        8.49700600        4.90303820
C        7.63223320        5.78575940        3.99932340
C        8.50348360        6.57320450        4.86850870
C        7.57505150        7.55658000        2.19999820
C        8.42383100        8.45152100        3.11397170
C        5.67010600        5.79430470        5.77559760
C        6.63431490        6.64881270        6.65910880
C        5.70985440        7.51490170        7.58643790
C        6.63807340        8.34870070        8.44177260
C        7.50781000        5.81635360        7.53073270
C        8.40202270        6.69235980        8.42758120
C        7.56332280        7.45821670        5.76588920
C        8.41966030        8.46667700        6.68807560
N        5.70019890        3.95209880        3.86716240
