&CONTROL
calculation = 'scf'
restart_mode = 'from_scratch'
verbosity = 'high'
wf_collect = .true.
pseudo_dir='/home/arpank/pseudopotentials/'
tprnfor = .true.
/
&SYSTEM
ibrav = 0
ecutwfc = 60
tot_charge = -1
nspin = 2
tot_magnetization = 2.0
nbnd = 480
nat = 215
ntyp = 2
input_dft = 'PBE0'
exx_fraction = 0.18
ecutfock = 120
/
&ELECTRONS
conv_thr = 1D-8
diago_full_acc=.true.
mixing_beta = 0.3
/
&IONS
ion_dynamics='bfgs'
ion_positions='default'
/
K_POINTS gamma
ATOMIC_SPECIES
C  12.01099968  C_ONCV_PBE-1.0.upf
N  14.00699997  N_ONCV_PBE-1.0.upf
CELL_PARAMETERS angstrom
    10.65000000      0.00000000      0.00000000
     0.00000000     10.65000000      0.00000000
     0.00000000      0.00000000     10.65000000
ATOMIC_POSITIONS angstrom
C        9.31060810        9.36199350        9.32740650
C       10.17680200       10.23005500       10.15703300
C        9.35267630        0.42515718        0.37999512
C       10.19544000        1.28926390        1.32623810
C        0.46133213        9.34685480        0.36040601
C        1.31005670       10.18120200        1.25856570
C        0.41315161        0.36348404        9.34899870
C        1.38632000        1.34929150       10.16723000
C        9.36886060        9.22648010        2.16763240
C       10.19959300       10.11878700        3.09554430
C        9.29424600        0.47147099        3.90865880
C       10.15513300        1.32506400        4.86428040
C        0.43701278        9.29642350        3.97160240
C        1.33465540       10.19535800        4.88518050
C        0.40409309        0.37272395        2.23335780
C        1.27625090        1.35008390        3.13392370
C        9.36111150        9.26699100        5.80441740
C       10.19481200       10.18720200        6.69347380
C        9.21430890        0.38717295        7.55076480
C       10.13711800        1.22322120        8.37891410
C        0.40953137        9.29300240        7.50261250
C        1.42208940       10.18068000        8.37024930
C        0.40170486        0.49618644        5.71448130
C        1.31616990        1.26551190        6.64122450
C        9.29936630        2.22450740        9.29190140
C       10.23296700        3.04030520       10.20786300
C        9.36046320        3.94113090        0.43665853
C       10.24017300        4.92607160        1.35554630
C        0.50902714        2.23424260        0.37333137
C        1.26973380        3.13313050        1.24335060
C        0.42673617        4.01213140        9.36461890
C        1.29960000        4.92545890       10.20719900
C        9.41422080        2.20705060        2.20417360
C       10.25253900        3.08227800        3.08269540
C        9.33250930        4.05498100        3.94221030
C       10.20212200        4.84995360        4.89375870
C        0.41197736        2.23764390        4.01194680
C        1.30215520        3.04294830        4.90037270
C        0.51496087        3.98344230        2.26753660
C        1.36535090        4.92329510        3.10039530
C        9.30017320        2.24768890        5.74457000
C       10.17774100        3.09470850        6.60043370
C        9.25930750        3.98508400        7.51796810
C       10.19422200        4.79597870        8.46019770
C        0.34376496        2.18730350        7.47953730
C        1.28605760        3.09323870        8.45737240
C        0.42787493        4.03475320        5.75097580
C        1.33455860        4.88904730        6.72847350
C        9.32941400        5.72996660        9.34608070
C       10.22650700        6.66875420       10.25587700
C        9.29872280        7.55915620        0.40230347
C       10.25756100        8.45129340        1.27581570
C        0.43905614        5.75221440        0.50286042
C        1.32078340        6.64702250        1.34236180
C        0.50670704        7.55209010        9.32761250
C        1.34302900        8.42145510       10.15961800
C        9.31243940        5.76307810        2.17315560
C       10.24484700        6.66767980        3.13487990
C        9.35176930        7.57846420        4.03399500
C       10.22463100        8.47688440        4.83981950
C        0.48016269        5.79092490        3.99322470
C        1.31078070        6.68786140        4.87191680
C        0.52200788        7.55632230        2.18409160
C        1.29884290        8.46418000        3.11770930
C        9.28628730        5.74698920        5.79368350
C       10.19087400        6.60631800        6.65870780
C        9.35446630        7.50818870        7.56389260
C       10.24934100        8.34594540        8.47679240
C        0.44699012        5.74661380        7.51469230
C        1.31908830        6.69348430        8.39631880
C        0.51212892        7.54214210        5.83087480
C        1.34300660        8.41174360        6.66683610
C        2.24741240        9.33851540        9.30104400
C        3.12586920       10.15978800       10.14983600
C        2.13364240        0.52398580        0.40587873
C        3.12490700        1.30204940        1.29097290
C        4.05618960        9.35033030        0.46572082
C        4.90470110       10.23323400        1.36490080
C        4.01514090        0.49117032        9.22980990
C        4.86635200        1.30904830       10.14554700
C        2.13407370        9.32662500        2.22172060
C        3.04642040       10.16265300        3.08998670
C        2.26564240        0.44809511        3.97702050
C        3.15101760        1.28255670        4.86341780
C        3.95213150        9.29828150        3.97950070
C        4.83307010       10.20331600        4.90758530
C        4.00678610        0.46991180        2.26967360
C        4.88467730        1.31269230        3.09522660
C        2.25354220        9.29507990        5.76686460
C        3.12578860       10.19473600        6.77121860
C        2.20235180        0.41930197        7.55115490
C        3.15242060        1.30946630        8.45593460
C        4.07839570        9.31525920        7.58859570
C        4.88518360       10.21059300        8.39164180
C        4.04954880        0.47194570        5.88342610
C        4.93794950        1.47503800        6.70755720
C        2.17993040        2.19340580        9.26368180
C        3.06960620        3.13928890       10.22525000
C        2.17705170        4.01404710        0.45971794
C        3.08326150        4.85159610        1.35808670
C        4.04513520        2.21411720        0.38190863
C        4.83293850        3.07830280        1.33800800
C        3.98233310        3.95713150        9.32105860
C        4.85262710        4.92288950       10.27978100
C        2.18764730        2.23930830        2.17176550
C        3.10136960        3.06968980        3.07036400
C        2.23536750        3.87667260        4.05047060
C        3.15873720        4.92019970        4.91182590
C        3.99294800        2.16557420        4.01068320
C        4.89467410        3.02872090        4.84997290
C        3.93780560        3.92776280        2.21588720
C        4.92503020        4.87530840        3.16071020
C        2.20227480        2.22307890        5.75005530
C        3.14857370        3.05344710        6.60596740
C        2.19639270        3.99784630        7.56985490
C        3.06523250        4.87258600        8.40609210
C        4.01527410        2.21711580        7.54687910
C        4.87276550        3.13596940        8.44306150
C        4.01016210        3.98233880        5.80683270
C        4.87369030        4.90020590        6.73790610
C        2.21175290        5.82656100        9.30812140
C        3.07425390        6.67197400       10.20174500
C        2.22232300        7.58805520        0.46761849
C        3.05911340        8.49269880        1.32893670
C        4.00003550        5.80793090        0.44292770
C        4.86748110        6.65718330        1.36216030
C        4.01790870        7.60272960        9.34416830
C        4.94657160        8.44850240       10.22290700
C        2.16221980        5.78203270        2.22948500
C        3.14806090        6.60498970        3.04656640
C        2.16933140        7.57819990        3.96978280
C        3.12752030        8.45365440        4.89444270
C        4.02192590        5.79320980        4.00375260
C        4.89684810        6.70621360        4.92425080
C        4.00072540        7.56048010        2.19619250
C        4.87976820        8.42635170        3.08707140
C        2.24390560        5.77652840        5.76858920
C        3.11460440        6.71024020        6.67202990
C        2.24562580        7.63606400        7.54079830
C        3.15820010        8.46749450        8.46354030
C        3.94417060        5.79782690        7.49431440
C        4.81359220        6.72576210        8.43244320
C        4.02573760        7.60367100        5.76981290
C        4.92419350        8.41493800        6.64420910
C        5.77208880        9.34847990        9.40694840
C        6.66326710       10.15973500       10.23090300
C        5.76119850        0.47505368        0.49689874
C        6.62360740        1.24996800        1.37500890
C        7.62401380        9.30892170        0.43385392
C        8.36582780       10.22148200        1.32934960
C        7.54110230        0.44989644        9.30688200
C        8.46882580        1.34982900       10.21788800
C        5.83171020        9.31255490        2.19862130
C        6.63949730       10.19075300        3.16596690
C        5.73596230        0.45943960        4.02755760
C        6.68833900        1.42217350        4.82026570
C        7.63099970        9.27858960        4.01370570
C        8.50346880       10.14102100        4.91246960
C        7.55985320        0.46812096        2.28174710
C        8.40144400        1.33993610        3.14520210
C        5.74360450        9.32237790        5.69336970
C        6.64166200       10.24914000        6.61375720
C        5.83597530        0.48290567        7.54853220
C        6.60347560        1.27377920        8.39482810
C        7.49719600        9.27405840        7.60245670
C        8.38607410       10.17154600        8.44952460
C        7.60561510        0.50034415        5.75067360
C        8.42667880        1.34178240        6.66969770
C        5.69213640        2.25091340        9.36146140
C        6.65224690        3.10641380       10.19607800
C        5.72064820        4.04808050        0.46777051
C        6.61172870        4.88278250        1.33727320
C        7.57629380        2.24558250        0.46060879
C        8.40760660        3.03809230        1.34727460
C        7.43478570        4.00218230        9.32383480
C        8.38138480        4.88388910       10.15695600
C        5.77483720        2.20136180        2.22463660
C        6.66280090        3.12519070        3.12277940
C        7.58755470        2.27802300        4.00487550
C        8.43629670        3.15014090        4.86095950
C        7.61557020        3.99528610        2.25893650
C        8.45070140        4.93223030        3.05951290
C        5.72372150        2.25100210        5.83158280
C        6.73902530        3.10641670        6.62429750
C        5.76339970        3.94053670        7.56040070
C        6.64897130        4.89404050        8.42520090
C        7.52670080        2.19384080        7.57162750
C        8.41681540        3.09958320        8.41054900
C        7.55243280        3.94903620        5.81227980
C        8.38862650        4.87918440        6.68428060
C        5.72527410        5.71095640        9.31122900
C        6.59097200        6.67319000       10.21554100
C        5.72323580        7.61080380        0.47002640
C        6.70528970        8.42699100        1.32338330
C        7.47964500        5.81073090        0.45767002
C        8.39035610        6.65555650        1.28448630
C        7.58142470        7.58494020        9.31811400
C        8.45430700        8.46313190       10.16171500
C        5.84103110        5.79067090        2.23207570
C        6.64172420        6.58435270        3.16622460
C        5.83412130        7.48729880        3.99851560
C        6.68144770        8.49185340        4.86292180
C        7.58398100        5.72851580        3.94685590
C        8.46977130        6.63212490        4.94271020
C        7.60571160        7.58075730        2.21773760
C        8.45716980        8.34145940        3.04907550
C        5.72832920        5.87560480        5.91564400
C        6.70213560        6.58241940        6.65270090
C        5.72448170        7.52727340        7.56041840
C        6.62386800        8.44717920        8.34180310
C        7.47313370        5.87434370        7.53497600
C        8.42196140        6.76339890        8.44945050
C        7.53457560        7.55173520        5.77498670
C        8.41557090        8.42555720        6.63835900
N        5.63523500        3.84861200        3.94181180
