&CONTROL
calculation = 'scf'
restart_mode = 'from_scratch'
verbosity = 'high'
wf_collect = .true.
pseudo_dir='/home/arpank/pseudopotentials/'
tprnfor = .true.
/
&SYSTEM
ibrav = 0
ecutwfc = 60
tot_charge = -1
nspin = 2
tot_magnetization = 2.0
nbnd = 480
nat = 215
ntyp = 2
input_dft = 'PBE0'
exx_fraction = 0.18
ecutfock = 120
/
&ELECTRONS
conv_thr = 1D-8
diago_full_acc=.true.
mixing_beta = 0.3
/
&IONS
ion_dynamics='bfgs'
ion_positions='default'
/
K_POINTS gamma
ATOMIC_SPECIES
C  12.01099968  C_ONCV_PBE-1.0.upf
N  14.00699997  N_ONCV_PBE-1.0.upf
CELL_PARAMETERS angstrom
    10.65000000      0.00000000      0.00000000
     0.00000000     10.65000000      0.00000000
     0.00000000      0.00000000     10.65000000
ATOMIC_POSITIONS angstrom
C        9.27424910        9.29276860        9.36084170
C       10.17963600       10.18447400       10.16771600
C        9.24782510        0.45424818        0.48962145
C       10.22349300        1.39830840        1.34476800
C        0.44348421        9.30335880        0.43768102
C        1.35354610       10.19658000        1.35143530
C        0.50865910        0.43721770        9.37801560
C        1.32754240        1.29404670       10.25275200
C        9.30413840        9.30023220        2.28589830
C       10.17645800       10.20892000        3.12882280
C        9.34648690        0.42579801        4.05144230
C       10.14986900        1.34783440        4.87470760
C        0.38393164        9.32418430        3.98355310
C        1.36523030       10.25654500        4.87708560
C        0.46285390        0.43782469        2.19827390
C        1.34240690        1.30888990        3.11553980
C        9.38772080        9.28060650        5.77633110
C       10.19938600       10.21445100        6.64302530
C        9.26936770        0.46413486        7.56403990
C       10.21156800        1.30367260        8.45299720
C        0.44815124        9.30377560        7.54647080
C        1.39787600       10.20702100        8.43586130
C        0.43447594        0.49794384        5.79361690
C        1.28700450        1.35260260        6.72603830
C        9.42492580        2.19547110        9.33021950
C       10.15077800        3.17953990       10.25324400
C        9.34186090        4.07201680        0.45680991
C       10.28987600        4.90627180        1.29163520
C        0.46857941        2.23151850        0.46159146
C        1.35040520        3.12354810        1.32915240
C        0.42159715        3.98031820        9.36013630
C        1.28361760        4.91741610       10.18707000
C        9.29581320        2.22827470        2.20206780
C       10.21610200        3.14544800        3.15661900
C        9.35232990        4.01896620        3.99280010
C       10.12405300        4.87395750        4.85803090
C        0.43938887        2.23852480        4.01777560
C        1.37160610        3.08212030        4.90068660
C        0.50600458        3.93812870        2.28981030
C        1.35047770        4.81259660        3.10203850
C        9.31048560        2.18278690        5.79737900
C       10.22240000        3.14089120        6.76069210
C        9.27200620        4.01555550        7.55084840
C       10.19107000        4.90469380        8.46434800
C        0.51127995        2.23723550        7.46723800
C        1.33398230        3.11089660        8.46218410
C        0.41909195        3.99797010        5.79305570
C        1.34020420        4.93460510        6.61270200
C        9.35690380        5.81204020        9.41343880
C       10.19717200        6.64727060       10.16188600
C        9.34214650        7.47150580        0.44615472
C       10.26985400        8.39029990        1.35177200
C        0.46431155        5.74776260        0.43757477
C        1.29514150        6.61377290        1.32468050
C        0.41624240        7.51762590        9.27370680
C        1.31433970        8.42653080       10.18150800
C        9.34471560        5.78120390        2.23218650
C       10.23363400        6.56837780        3.15145330
C        9.31533860        7.53188690        4.05251550
C       10.27033000        8.43087060        4.96041720
C        0.42580004        5.78870170        3.98491710
C        1.27845900        6.67805150        4.91489850
C        0.47971160        7.47422560        2.25505970
C        1.32539190        8.37251860        3.13405440
C        9.24005150        5.77115160        5.78194210
C       10.14369400        6.65168100        6.68719840
C        9.24955710        7.57782610        7.58526930
C       10.17494700        8.50470020        8.42398610
C        0.52253913        5.80462960        7.54699220
C        1.33029590        6.65498490        8.46137540
C        0.41198995        7.55448550        5.89149860
C        1.31904350        8.34988790        6.62940340
C        2.27893200        9.28625710        9.30091960
C        3.17973190       10.21989700       10.19641800
C        2.23681220        0.47818006        0.46610874
C        3.05976060        1.30807450        1.35355090
C        4.00575840        9.32938970        0.42900789
C        4.83633020       10.10983800        1.32514290
C        3.97991260        0.44476107        9.31342970
C        4.88417460        1.37231110       10.19810900
C        2.20373440        9.30235220        2.17302930
C        3.14705770       10.19037400        3.07248390
C        2.24694720        0.48127119        3.98752670
C        3.17105340        1.32431400        4.90500800
C        4.05450970        9.29668520        4.02095320
C        4.85985510       10.21186800        4.86165400
C        4.02525440        0.37720491        2.19270240
C        4.90468250        1.34262150        3.04594630
C        2.11559160        9.45960640        5.73724970
C        3.01146050       10.24533200        6.62380500
C        2.22663640        0.43944304        7.51135320
C        3.08018250        1.33333250        8.47866130
C        3.92960580        9.38721130        7.55190080
C        4.83207390       10.26940300        8.41494700
C        3.96084800        0.51139191        5.75346750
C        4.88397660        1.34195870        6.64797190
C        2.09870960        2.23833890        9.26222970
C        3.12346670        3.06830310       10.16221700
C        2.16694710        4.04979070        0.45876871
C        3.10525260        4.89675980        1.29020850
C        3.94689530        2.26892520        0.42661210
C        4.85240930        3.11674700        1.31083220
C        4.02602510        3.95523850        9.28994950
C        4.94577880        4.91426130       10.27627600
C        2.21827320        2.21896040        2.21188080
C        3.16857870        3.16405530        3.10860090
C        2.25815070        4.09679910        3.98246550
C        3.11328310        4.87420950        4.88790100
C        3.94579480        2.22746990        3.93862120
C        4.87798850        3.22850770        4.80901510
C        3.91761510        3.97000810        2.17728900
C        4.89340500        4.86048390        3.02421250
C        2.26602230        2.22922910        5.74739860
C        3.21686460        3.12355480        6.63355890
C        2.21940650        4.03195050        7.52016080
C        3.15635360        4.90143080        8.45467260
C        3.94784130        2.20090500        7.58706010
C        4.89010070        3.11446770        8.39547410
C        4.04246780        3.93794260        5.70513400
C        4.89255510        4.85722000        6.58762500
C        2.30651770        5.88277240        9.32929190
C        3.21017270        6.71136860       10.25102800
C        2.23608960        7.50453260        0.41819579
C        3.07680990        8.39394490        1.34695930
C        4.01753440        5.84152240        0.43002378
C        4.97655240        6.72716600        1.31702020
C        4.01787030        7.54742070        9.35699890
C        4.96105510        8.42831820       10.19335000
C        2.25296630        5.73027620        2.19901540
C        3.17684940        6.70024270        3.16091000
C        2.21628670        7.49529190        4.03908610
C        3.05083440        8.46664770        4.93631220
C        4.11647380        5.75100490        4.04565310
C        4.86612170        6.59629130        4.86282160
C        4.01408800        7.56076980        2.20128910
C        4.85205010        8.40598010        3.05726070
C        2.21576960        5.73425060        5.73281440
C        3.11677540        6.57390860        6.64961860
C        2.25352640        7.52006090        7.55089930
C        3.10923900        8.41218790        8.41757930
C        4.00322260        5.78117030        7.53754780
C        4.86870470        6.61883270        8.39586320
C        3.97567600        7.54853900        5.78909020
C        4.81173370        8.44652770        6.66422990
C        5.78210120        9.35119600        9.37377380
C        6.67669040       10.18810400       10.17807800
C        5.77668160        0.44409706        0.43150685
C        6.67040670        1.31191340        1.39265760
C        7.58482030        9.28114390        0.53562029
C        8.41148170       10.24214800        1.41054110
C        7.60178520        0.40255381        9.25438360
C        8.48092640        1.34585470       10.22749000
C        5.71863870        9.27437810        2.27739260
C        6.59999380       10.28221800        3.12118790
C        5.77331970        0.47337709        3.96833880
C        6.69153060        1.34335220        4.83625520
C        7.47535510        9.31684730        3.95687060
C        8.40814360       10.15212500        4.80131710
C        7.52620060        0.42867306        2.23539350
C        8.44026110        1.31514840        3.08132960
C        5.70889980        9.31884900        5.82149330
C        6.54593590       10.18343700        6.67106290
C        5.72276090        0.49917497        7.52895010
C        6.64756440        1.25481250        8.42791190
C        7.52814440        9.33748030        7.50805180
C        8.45157040       10.20855800        8.45706940
C        7.55649160        0.43263226        5.74296750
C        8.43259040        1.24207460        6.63047780
C        5.75888500        2.22097050        9.29216810
C        6.64219180        3.12495710       10.15420000
C        5.77945080        4.00057440        0.39987854
C        6.66988750        4.86150760        1.34719270
C        7.58476070        2.21427030        0.44760552
C        8.38566530        3.14044580        1.36473510
C        7.57996460        3.96552740        9.31116730
C        8.43193320        4.87363390       10.19859300
C        5.71069720        2.19164140        2.14574170
C        6.64630670        3.10056040        3.10805530
C        7.56511320        2.24300540        3.99585870
C        8.42332720        3.15946630        4.89163010
C        7.54502980        4.00342990        2.22877670
C        8.41650780        4.86501580        3.09222440
C        5.79010430        2.30231900        5.73549880
C        6.71583980        3.05566880        6.68147760
C        5.72681770        3.90012520        7.46901060
C        6.65198100        4.87863150        8.37252630
C        7.59024540        2.16505510        7.49382750
C        8.45085730        3.15293930        8.37432080
C        7.56640700        3.99576060        5.85130900
C        8.40302800        4.85486770        6.70539260
C        5.71890450        5.76674470        9.27541650
C        6.62138880        6.63376890       10.17526800
C        5.67976430        7.51708680        0.50747645
C        6.69087470        8.43402770        1.31884240
C        7.55013910        5.77640310        0.44393444
C        8.48758250        6.70541400        1.39429890
C        7.47793760        7.49776550        9.31442400
C        8.35793470        8.40361440       10.21044500
C        5.87807510        5.78828450        2.23086840
C        6.70213630        6.62314440        3.05748520
C        5.76883490        7.50544740        3.98191480
C        6.61598350        8.43368220        4.82452950
C        7.60791230        5.79559000        3.85858740
C        8.33473700        6.54065790        4.90539200
C        7.56577560        7.48196980        2.24680960
C        8.45673290        8.40909460        3.09481760
C        5.67975130        5.77826350        5.78310660
C        6.62118050        6.65403540        6.66580200
C        5.72056780        7.55295910        7.57220510
C        6.66692400        8.33077620        8.39339410
C        7.52372150        5.78782170        7.51474950
C        8.43753440        6.67119610        8.45843710
C        7.46972250        7.57254090        5.74913360
C        8.43572430        8.38695780        6.63109160
N        5.68265270        3.98349670        3.87283270
