&CONTROL
calculation = 'scf'
restart_mode = 'from_scratch'
verbosity = 'high'
wf_collect = .true.
pseudo_dir='/home/arpank/pseudopotentials/'
tprnfor = .true.
/
&SYSTEM
ibrav = 0
ecutwfc = 60
tot_charge = -1
nspin = 2
tot_magnetization = 2.0
nbnd = 480
nat = 215
ntyp = 2
input_dft = 'PBE0'
exx_fraction = 0.18
ecutfock = 120
/
&ELECTRONS
conv_thr = 1D-8
diago_full_acc=.true.
mixing_beta = 0.3
/
&IONS
ion_dynamics='bfgs'
ion_positions='default'
/
K_POINTS gamma
ATOMIC_SPECIES
C  12.01099968  C_ONCV_PBE-1.0.upf
N  14.00699997  N_ONCV_PBE-1.0.upf
CELL_PARAMETERS angstrom
    10.65000000      0.00000000      0.00000000
     0.00000000     10.65000000      0.00000000
     0.00000000      0.00000000     10.65000000
ATOMIC_POSITIONS angstrom
C        9.26023280        9.35345550        9.25475280
C       10.12941300       10.24706200       10.14317000
C        9.31369710        0.41538052        0.43658605
C       10.21353700        1.38049630        1.33209370
C        0.43595809        9.36698290        0.39568451
C        1.30847560       10.15799700        1.32447660
C        0.54297865        0.45299069        9.27316250
C        1.28354080        1.26351580       10.27599300
C        9.34898220        9.30320350        2.24352630
C       10.20709500       10.23860300        3.07046400
C        9.30347120        0.52544596        4.02247070
C       10.21552300        1.37598450        4.90170210
C        0.45603240        9.35001670        3.98662940
C        1.27595270       10.25793000        4.84121380
C        0.47056515        0.45001173        2.23795290
C        1.37644920        1.32104200        3.12536550
C        9.35575990        9.30541400        5.71434090
C       10.28235700       10.14358200        6.74649980
C        9.31569600        0.39001550        7.56686650
C       10.20098800        1.31473320        8.40937700
C        0.48922813        9.29113160        7.49381410
C        1.39842520       10.20382900        8.45685520
C        0.48277715        0.48435550        5.73751030
C        1.34048990        1.39089280        6.72349850
C        9.39239650        2.13313410        9.25497990
C       10.17817300        3.07672030       10.18605700
C        9.32510990        4.00778670        0.44035697
C       10.32475700        4.80543090        1.28134570
C        0.45503540        2.18666270        0.41388917
C        1.35773200        3.11286690        1.34195380
C        0.44940695        4.03718030        9.35078180
C        1.28443480        4.88129090       10.25037200
C        9.38520690        2.18176490        2.17538220
C       10.23919800        3.13219850        3.06960850
C        9.32009530        4.03595510        3.95712370
C       10.29036800        4.89209430        4.91462510
C        0.48501665        2.21519870        3.96971890
C        1.34395890        3.07576980        4.89814030
C        0.43780422        4.02694030        2.24857890
C        1.35927200        4.90974200        3.12257830
C        9.34367220        2.20926290        5.78256350
C       10.22016200        3.10193650        6.59708070
C        9.28752590        4.01524650        7.52431120
C       10.14833200        4.91191980        8.42869490
C        0.36258907        2.19196720        7.50792670
C        1.38477340        3.12045300        8.47807660
C        0.45763982        4.01758140        5.71064080
C        1.34235240        4.90541260        6.60047910
C        9.34662660        5.83457480        9.31204080
C       10.20919500        6.70115780       10.20670300
C        9.31974370        7.58942750        0.42413798
C       10.23451700        8.42779320        1.32424460
C        0.48344446        5.78876250        0.41906783
C        1.23348470        6.64837960        1.40867200
C        0.42362909        7.57887990        9.30930110
C        1.32321430        8.44094100       10.17663900
C        9.35111490        5.81669080        2.25700280
C       10.20198900        6.66060130        3.16802980
C        9.31976940        7.52614440        4.03907290
C       10.23288900        8.48913950        4.85457370
C        0.45053858        5.75676520        4.00682140
C        1.33530000        6.71424500        4.86000100
C        0.43328368        7.56345040        2.20413750
C        1.36748190        8.34034250        3.04717840
C        9.32372160        5.86524960        5.82632490
C       10.22677700        6.69312490        6.65592500
C        9.30274900        7.64669100        7.49739600
C       10.23314800        8.50424750        8.32042930
C        0.44373902        5.80239870        7.56562950
C        1.32836630        6.68482260        8.42406200
C        0.44392655        7.54946450        5.75831070
C        1.38343280        8.41066860        6.64068040
C        2.27123180        9.33565240        9.36113180
C        3.16806640       10.16227900       10.26196700
C        2.21372110        0.43452541        0.43473329
C        3.05694750        1.26657710        1.31597110
C        4.04149850        9.25771480        0.47670887
C        4.91444280       10.14453000        1.37315270
C        3.98225240        0.45678712        9.26752580
C        4.87326370        1.34754210       10.22266800
C        2.22072060        9.27817880        2.15250620
C        3.07307580       10.17890300        3.16544570
C        2.21211170        0.48420228        3.96977480
C        3.09902610        1.30654720        4.79449390
C        3.98218540        9.30691320        4.06567660
C        4.93924200       10.19620700        4.88602080
C        3.99396220        0.40261470        2.23605500
C        4.86004350        1.28147490        3.03301420
C        2.22734480        9.32074380        5.79299310
C        3.11498340       10.22736900        6.68327030
C        2.31491820        0.40866516        7.56262670
C        3.12686630        1.30383460        8.34310830
C        3.99130620        9.27420950        7.53954920
C        4.90994290       10.18595400        8.46698420
C        4.01066850        0.45590456        5.75406040
C        4.87357330        1.27984760        6.60523680
C        2.17687600        2.10012350        9.31005720
C        3.11458120        3.05924850       10.19243200
C        2.19247950        3.96791840        0.43798339
C        3.07119520        4.86866290        1.34167800
C        3.96774200        2.15568040        0.44019360
C        4.87783240        3.06857370        1.33575350
C        4.00409560        3.97909880        9.41836100
C        4.86177580        4.98422390       10.24304800
C        2.22678150        2.22625870        2.21159770
C        3.09089570        3.07749680        3.17522260
C        2.21335370        3.94322030        3.90671900
C        3.16570390        4.81530710        4.88706060
C        3.98007050        2.19325830        3.94560030
C        4.89299560        3.12173650        4.86063410
C        3.94576230        3.91649050        2.20752590
C        4.86509010        4.82151240        3.12382310
C        2.20951050        2.19824100        5.78303610
C        3.13238260        3.12943520        6.68434330
C        2.26334200        3.98982000        7.60243430
C        3.09759410        4.93239840        8.48405020
C        4.03676150        2.27493370        7.47571880
C        4.92230140        3.12248410        8.43070470
C        4.03569070        3.92253710        5.77388680
C        4.84609820        4.87482070        6.59995440
C        2.16064170        5.79962370        9.31568520
C        3.04432220        6.65659810       10.22296200
C        2.18194450        7.52443990        0.48774211
C        3.11264630        8.39400560        1.35627170
C        3.91387920        5.76095050        0.49956973
C        4.91204810        6.66040120        1.27093090
C        3.97245290        7.48522760        9.33966010
C        4.88541280        8.42097600       10.20464600
C        2.22044270        5.77764010        2.24785010
C        3.19690510        6.61196050        3.07681650
C        2.20074470        7.50998620        4.02119410
C        3.06550810        8.38466440        4.84688110
C        4.02304340        5.72207230        3.99841870
C        4.89549580        6.68155830        4.86500020
C        4.00613410        7.51385550        2.19192740
C        4.91557960        8.34922130        3.16811230
C        2.22738960        5.74055620        5.77387180
C        3.04913730        6.68862980        6.64768350
C        2.19097000        7.63280630        7.53277330
C        3.14939550        8.46300210        8.43083380
C        3.98271360        5.77675060        7.59236250
C        4.82717400        6.63188200        8.46024690
C        3.98953220        7.46478610        5.69728470
C        4.88037920        8.45991370        6.60619630
C        5.78207370        9.31977700        9.26575640
C        6.67822850       10.19453200       10.17661800
C        5.70198320        0.47124830        0.38454258
C        6.63675590        1.33305070        1.26592940
C        7.46372550        9.30425620        0.45144682
C        8.46058010       10.17828200        1.29914380
C        7.53868550        0.36693073        9.30685630
C        8.44674350        1.42927760       10.15029800
C        5.77172310        9.30362760        2.19762850
C        6.72125750       10.19866100        3.12813600
C        5.76424950        0.41620182        3.97594860
C        6.68545840        1.40412620        4.89307690
C        7.56488480        9.32846840        3.97176560
C        8.41931260       10.21812000        4.89648950
C        7.53962500        0.42093132        2.18117850
C        8.37488640        1.35172610        3.02898130
C        5.75304420        9.35675290        5.71692530
C        6.61380080       10.21410500        6.66105400
C        5.68062660        0.47807981        7.52878630
C        6.65380500        1.30840730        8.47181350
C        7.52051810        9.26527980        7.56015920
C        8.42750260       10.17077200        8.36519910
C        7.58614960        0.47668931        5.80289400
C        8.48001140        1.33749330        6.73841790
C        5.72083140        2.17436910        9.34084250
C        6.66549220        3.00331420       10.25192300
C        5.70872110        3.90281000        0.47332341
C        6.57966210        4.86659510        1.35851660
C        7.50353570        2.27406670        0.42455484
C        8.36927840        3.13211210        1.35429860
C        7.52158750        3.99186500        9.32266080
C        8.45553100        4.90579830       10.21224400
C        5.75630240        2.18918680        2.19900010
C        6.56743850        3.10448510        3.08558660
C        7.56310280        2.34525760        3.94373900
C        8.37296680        3.22029660        4.84197340
C        7.52924020        3.96185420        2.29960210
C        8.43095710        4.94369220        3.13306860
C        5.75477460        2.24720090        5.66493460
C        6.74217310        3.18076020        6.64932580
C        5.72120370        4.07703290        7.57829580
C        6.67703910        4.88664950        8.41265990
C        7.57337810        2.18697690        7.58168070
C        8.43068160        3.08755680        8.45077360
C        7.57826950        3.99095450        5.84036800
C        8.38743240        4.90033390        6.68589750
C        5.74319870        5.81756410        9.39396670
C        6.67769460        6.67819540       10.23759800
C        5.83337050        7.51373320        0.41845888
C        6.68576920        8.45846820        1.37382260
C        7.48041820        5.77735050        0.53806090
C        8.50449750        6.67402370        1.37785050
C        7.53022990        7.51417890        9.34688820
C        8.40298300        8.38314840       10.17832000
C        5.71179250        5.79087570        2.28518020
C        6.63359940        6.67220510        3.11759540
C        5.70557710        7.63030630        3.98693140
C        6.71251870        8.45742130        4.83263120
C        7.63297620        5.79807960        4.06218740
C        8.32331700        6.62272830        4.86976530
C        7.53717010        7.50033750        2.31778650
C        8.49933740        8.42485210        3.20713900
C        5.63953750        5.89402640        5.85759160
C        6.58064920        6.67171900        6.67946340
C        5.73887940        7.54996850        7.59763450
C        6.69305350        8.37573920        8.42450130
C        7.57262610        5.70900310        7.55362690
C        8.37559300        6.70482470        8.41291170
C        7.53186130        7.51994340        5.74989180
C        8.45441210        8.47538610        6.64276670
N        5.66792100        3.92592300        3.91289270
